60
Properties=species:S:1:pos:R:3 i=46 E=-223.7821755764 pbc="F F F"
C        1.44859974       4.69694029       0.30860326
C        6.12152943       2.76114651       6.33862302
C        0.90495457       0.96775101       6.33887084
C        6.66488227       6.48995969       0.30922310
C        0.49573879       3.64611141       2.10669920
C        7.07463548       3.81221576       4.54085668
C        1.85779911      -0.08303677       4.54104691
C        5.71207006       7.54078743       2.10725666
C       -0.10523325       5.79410874       1.58467817
C        7.67548265       1.66410044       5.06235459
C        2.45876455       2.06502294       5.06288105
C        5.11102657       5.39270290       1.58540210
N       -0.71206164       4.56584858       5.70646539
N        8.28226597       2.89208486       0.94091350
N        3.06545454       0.83662445       0.94089919
N        4.50442292       6.62106087       5.70727699
N        0.44322295       2.51543246       3.00259886
N        7.12692321       4.94285446       3.64482319
N        1.91019618       6.24450293       3.64478629
N        5.65950061       1.21345367       3.00327218
N       -0.77777723       7.01343085       1.95599463
N        8.34820606       0.44479177       4.69107717
N        3.13150616       3.28427055       4.69164910
N        4.43827829       4.17338842       1.95648571
N       -0.29369933       4.72189216       2.42595671
N        7.86388467       2.73639865       4.22107286
N        2.64727627       0.99271847       4.22168091
N        4.92266293       6.46495378       2.42657695
N        0.73926445       5.85729034       0.50527117
N        6.83120698       1.60101694       6.14189686
N        1.61416758       2.12808216       6.14224971
N        5.95545120       5.32967802       0.50592597
N        1.39554403       3.55517900       1.07157913
N        6.17481700       3.90300145       5.57593908
N        0.95785734      -0.17410873       5.57592118
N        6.61189144       7.63173136       1.07216783
H       -0.48337828       5.45096176       5.30111356
H        8.05340765       2.00675800       1.34592242
H        2.83745551       1.72182561       1.34671338
H        4.73249718       5.73587447       5.30144460
H        0.16886329       4.10240004       5.80994091
H        7.40162234       3.35588869       0.83739636
H        2.18418442       0.37414675       0.83721321
H        5.38541981       7.08397227       5.81102256
H        0.61420125       1.66026359       2.50368260
H        6.95619777       5.79810836       4.14399275
H        1.74011995       5.38899911       4.14371633
H        5.82972122       2.06881318       2.50429642
H       -0.47835763       2.39645281       3.37645300
H        8.04852464       5.06208861       3.27109294
H        2.83142661       6.12592027       3.27022481
H        4.73807531       1.33203395       3.37760297
H        9.41948151       0.09993494       1.14824882
H       -1.84931529       7.35825270       5.49883928
H        3.36699723       3.82883500       5.49933637
H        4.20296319       3.62892397       1.14878719
H        8.76772830       6.81748881       2.38408119
H       -1.19716506       0.64093755       4.26317308
H        4.01900865       3.08808633       4.26350821
H        3.55079160       4.36965513       2.38468894
