      60
 i =        5, E =      -321.7343406567
  C         1.6088770713        4.8650867414        0.4858399584
  C         5.9611534558        2.5929120413        6.1618755865
  C         0.7551122023        1.1367616953        6.1695305099
  C         6.8149306284        6.3212370942        0.4781806780
  C         0.3641699554        3.8292162292        2.1005393452
  C         7.2058744910        3.6287929413        4.5471755871
  C         1.9916595635        0.1002712382        4.5494457249
  C         5.5783842232        7.3577294263        2.0982700037
  C        -0.0233703731        6.0205383551        1.5962823720
  C         7.5934092662        1.4374642679        5.0514331372
  C         2.3856191226        2.2910565736        5.0530011172
  C         5.1844284390        5.1669447266        1.5947284262
  N        -0.3233910399        4.8279827737        6.1673321643
  N         7.8934300595        2.6300195744        0.4803913472
  N         2.6936899829        1.0981393254        0.4953745466
  N         4.8763518864        6.3598536622        6.1523372229
  N         0.0533165772        2.7334556048        2.8145951060
  N         7.5167310671        4.7245470761        3.8331123959
  N         2.2857586069        6.4647860962        3.8236988321
  N         5.2842774835        0.9932083174        2.8240207225
  N        -0.6556480055        7.2066340639        1.8519095792
  N         8.2256837997        0.2513659975        4.7958085970
  N         3.0212996834        3.4755450401        4.7997465941
  N         4.5487379071        3.9824553903        1.8479606753
  N        -0.3676145192        4.9493759475        2.3302598218
  N         7.9376660515        2.5086342665        4.3174726285
  N         2.7273063612        1.2181331383        4.3198454428
  N         4.8427331546        6.2398701336        2.3278770578
  N         0.9357958014        6.0405379433        0.6470758606
  N         6.6342293804        1.4174606785        6.0006258921
  N         1.4245601246        2.3128994855        6.0008209778
  N         6.1454733959        5.1451062674        0.6468946579
  N         1.3919280211        3.7439460279        1.2197530713
  N         6.1781176006        3.7140492609        5.4279637236
  N         0.9726680927        0.0139573766        5.4395581477
  N         6.5973630382        7.4440457111        1.2081436776
  H         0.0453876342        5.7247243536        5.8100391935
  H         7.5246445129        1.7332796536        0.8376797220
  H         2.3147477653        1.9956823551        0.8409673249
  H         5.2552987339        5.4623115289        5.8067474265
  H         0.2416301941        3.9760341934        6.0637971102
  H         7.3284174050        3.4819756872        0.5839224310
  H         2.1208136527        0.2496820806        0.5872770376
  H         5.4492181857        7.2083192659        6.0604391162
  H         0.5107591240        1.8610245492        2.5742418660
  H         7.0592739407        5.5969704318        4.0734672220
  H         1.8374672324        5.5909269108        4.0755917196
  H         5.7325720084        1.8670654605        2.5721246843
  H        -0.8307226725        2.6914747469        3.3550844643
  H         8.4007732345        4.7665269440        3.2926295657
  H         3.1746301930        6.4202148511        3.2906531351
  H         4.3954122578        1.0377838335        3.3570748123
  H         9.7596267705        0.4026180142        1.0497784061
  H        -2.1895920059        7.0553781732        5.5979365699
  H         3.0345868887        4.1305428201        5.6010982635
  H         4.5354527792        3.3274526393        1.0466141091
  H         8.8646938381        7.1153203052        2.3007248476
  H        -1.2946606880        0.3426803901        4.3469885437
  H         3.9329659032        3.3859482451        4.3490514551
  H         3.6370736872        4.0720515723        2.2986587825
