# This file was created Wed Mar 25 17:04:09 2026
# Created by:
#                   :-) GROMACS - gmx dos, 2025.4-Homebrew (-:
# 
# Executable:   /opt/homebrew/bin/../Cellar/gromacs/2025.4/bin/gmx
# Data prefix:  /opt/homebrew/bin/../Cellar/gromacs/2025.4
# Working dir:  /Users/mackenziehenley/cp2k/D2O_ice/GroMACK
# Command line:
#   gmx dos -f md_dos_fixed.trr -s md_dos_fixed.tpr -dos dos_fixed.xvg
# gmx dos is part of G R O M A C S:
#
# Gallium Rubidium Oxygen Manganese Argon Carbon Silicon
#
@    title "Velocity autocorrelation function"
@    xaxis  label "Time (ps)"
@    yaxis  label "C(t)"
@TYPE xy
         0           1
    0.0005    0.991936
     0.001    0.968076
    0.0015    0.929388
     0.002    0.877435
    0.0025    0.814307
     0.003    0.742518
    0.0035    0.664895
     0.004    0.584446
    0.0045    0.504228
     0.005    0.427201
    0.0055    0.356097
     0.006    0.293301
    0.0065    0.240742
     0.007     0.19981
    0.0075    0.171304
     0.008    0.155396
    0.0085    0.151639
     0.009    0.158991
    0.0095    0.175879
      0.01    0.200283
    0.0105    0.229834
     0.011    0.261942
    0.0115    0.293922
     0.012     0.32313
    0.0125    0.347092
     0.013    0.363629
    0.0135    0.370967
     0.014    0.367818
    0.0145    0.353448
     0.015    0.327712
    0.0155    0.291063
     0.016    0.244527
    0.0165    0.189657
     0.017    0.128458
    0.0175   0.0632858
     0.018  -0.00326346
    0.0185  -0.0684811
     0.019   -0.129678
    0.0195   -0.184313
      0.02   -0.230122
    0.0205   -0.265226
     0.021   -0.288224
    0.0215   -0.298264
     0.022    -0.29509
    0.0225   -0.279054
     0.023   -0.251107
    0.0235   -0.212754
     0.024   -0.165993
    0.0245   -0.113216
     0.025  -0.0571065
    0.0255  -0.000512242
     0.026   0.0536852
    0.0265    0.102704
     0.027    0.143989
    0.0275    0.175334
     0.028    0.194977
    0.0285    0.201688
     0.029    0.194822
    0.0295    0.174349
      0.03    0.140854
    0.0305   0.0955096
     0.031   0.0400214
    0.0315  -0.0234513
     0.032   -0.092397
    0.0325   -0.164067
     0.033   -0.235601
    0.0335   -0.304161
     0.034   -0.367058
    0.0345   -0.421873
     0.035   -0.466567
    0.0355   -0.499571
     0.036   -0.519848
    0.0365   -0.526944
     0.037    -0.52099
    0.0375   -0.502698
     0.038   -0.473317
    0.0385   -0.434565
     0.039   -0.388544
    0.0395   -0.337634
      0.04   -0.284376
    0.0405   -0.231346
     0.041   -0.181034
    0.0415   -0.135723
     0.042  -0.0973758
    0.0425  -0.0675509
     0.043  -0.0473235
    0.0435  -0.0372401
     0.044   -0.037295
    0.0445  -0.0469355
     0.045  -0.0650926
    0.0455  -0.0902376
     0.046    -0.12046
    0.0465   -0.153566
     0.047   -0.187186
    0.0475   -0.218896
     0.048   -0.246339
    0.0485   -0.267344
     0.049   -0.280031
    0.0495   -0.282914
      0.05    -0.27497
    0.0505   -0.255698
     0.051   -0.225146
    0.0515   -0.183916
     0.052   -0.133138
    0.0525  -0.0744225
     0.053  -0.00978861
    0.0535   0.0584271
     0.054    0.127677
    0.0545    0.195321
     0.055    0.258746
    0.0555    0.315484
     0.056    0.363332
    0.0565    0.400447
     0.057    0.425433
    0.0575    0.437406
     0.058    0.436029
    0.0585    0.421533
     0.059    0.394699
    0.0595    0.356824
      0.06    0.309661
    0.0605    0.255333
     0.061    0.196239
    0.0615    0.134944
     0.062   0.0740569
    0.0625   0.0161177
     0.063  -0.0365198
    0.0635  -0.0817909
     0.064   -0.118011
    0.0645   -0.143945
     0.065    -0.15886
    0.0655   -0.162547
     0.066   -0.155324
    0.0665   -0.138013
     0.067   -0.111887
    0.0675  -0.0786079
     0.068  -0.0401354
    0.0685  0.00136972
     0.069   0.0436545
    0.0695   0.0844845
      0.07    0.121753
    0.0705    0.153581
     0.071     0.17841
    0.0715    0.195071
     0.072     0.20284
    0.0725    0.201469
     0.073    0.191193
    0.0735    0.172715
     0.074    0.147166
    0.0745    0.116046
     0.075   0.0811468
    0.0755     0.04446
     0.076    0.008078
    0.0765  -0.0259121
     0.077  -0.0555328
    0.0775  -0.0790152
     0.078  -0.0948873
    0.0785   -0.102048
     0.079  -0.0998219
    0.0795  -0.0879969
      0.08   -0.066834
    0.0805  -0.0370591
     0.081  0.000170338
    0.0815   0.0433178
     0.082    0.090539
    0.0825    0.139768
     0.083    0.188812
    0.0835    0.235456
     0.084    0.277563
    0.0845    0.313174
     0.085    0.340601
    0.0855      0.3585
     0.086    0.365937
    0.0865    0.362428
     0.087    0.347958
    0.0875    0.322985
     0.088    0.288413
    0.0885     0.24555
     0.089    0.196047
    0.0895     0.14182
      0.09   0.0849637
    0.0905   0.0276527
     0.091  -0.0279556
    0.0915   -0.079818
     0.092   -0.126096
    0.0925   -0.165236
     0.093   -0.196032
    0.0935    -0.21768
     0.094     -0.2298
    0.0945   -0.232449
     0.095   -0.226109
    0.0955   -0.211652
     0.096   -0.190296
    0.0965   -0.163532
     0.097   -0.133054
    0.0975   -0.100669
     0.098  -0.0682104
    0.0985  -0.0374441
     0.099  -0.0099876
    0.0995   0.0127684
       0.1   0.0297237
    0.1005   0.0401181
     0.101    0.043563
    0.1015   0.0400548
     0.102   0.0299688
    0.1025   0.0140352
     0.103  -0.00670285
    0.1035  -0.0309462
     0.104   -0.057208
    0.1045  -0.0838914
     0.105   -0.109372
    0.1055    -0.13208
     0.106   -0.150582
    0.1065   -0.163651
     0.107    -0.17033
    0.1075   -0.169982
     0.108   -0.162317
    0.1085   -0.147414
     0.109   -0.125717
    0.1095   -0.098009
      0.11  -0.0653841
    0.1105  -0.0291897
     0.111  0.00903502
    0.1115   0.0476315
     0.112   0.0849003
    0.1125    0.119181
     0.113     0.14893
    0.1135     0.17279
     0.114    0.189658
    0.1145    0.198728
     0.115    0.199537
    0.1155    0.191974
     0.116    0.176293
    0.1165    0.153093
     0.117    0.123293
    0.1175    0.088084
     0.118   0.0488758
    0.1185  0.00723012
     0.119  -0.0352115
    0.1195  -0.0768016
      0.12   -0.115961
    0.1205    -0.15125
     0.121   -0.181426
    0.1215   -0.205501
     0.122   -0.222776
    0.1225   -0.232869
     0.123   -0.235722
    0.1235   -0.231597
     0.124   -0.221053
    0.1245   -0.204916
     0.125   -0.184225
    0.1255   -0.160183
     0.126   -0.134093
    0.1265   -0.107289
     0.127  -0.0810739
    0.1275  -0.0566539
     0.128  -0.0350833
    0.1285  -0.0172156
     0.129  -0.00366608
    0.1295  0.00521301
      0.13  0.00934311
    0.1305  0.00891681
     0.131  0.00438164
    0.1315  -0.00358885
     0.132  -0.0141352
    0.1325  -0.0262607
     0.133  -0.0388861
    0.1335  -0.0509083
     0.134  -0.0612594
    0.1345   -0.068963
     0.135  -0.0731858
    0.1355  -0.0732811
     0.136  -0.0688234
    0.1365    -0.05963
     0.137  -0.0457717
    0.1375  -0.0275704
     0.138  -0.00558403
    0.1385   0.0194204
     0.139   0.0465036
    0.1395   0.0745987
      0.14    0.102563
    0.1405    0.129234
     0.141    0.153481
    0.1415    0.174262
     0.142    0.190672
    0.1425    0.201987
     0.143     0.20769
    0.1435    0.207504
     0.144    0.201397
    0.1445    0.189582
     0.145     0.17251
    0.1455    0.150841
     0.146    0.125417
    0.1465   0.0972201
     0.147   0.0673239
    0.1475   0.0368473
     0.148  0.00690202
    0.1485  -0.0214571
     0.149  -0.0472773
    0.1495  -0.0697485
      0.15  -0.0882352
    0.1505     -0.1023
     0.151   -0.111717
    0.1515   -0.116474
     0.152   -0.116765
    0.1525   -0.112974
     0.153   -0.105649
    0.1535  -0.0954638
     0.154  -0.0831877
    0.1545  -0.0696369
     0.155  -0.0556333
    0.1555  -0.0419627
     0.156   -0.029335
    0.1565  -0.0183506
     0.157  -0.00947239
    0.1575  -0.00300671
     0.158  0.000907675
    0.1585   0.0023012
     0.159  0.00136629
    0.1595  -0.00155858
      0.16  -0.0060122
    0.1605  -0.0114399
     0.161  -0.0172276
    0.1615  -0.0227384
     0.162  -0.0273498
    0.1625  -0.0304898
     0.163    -0.03167
    0.1635  -0.0305133
     0.164   -0.026776
    0.1645  -0.0203625
     0.165  -0.0113318
    0.1655  0.000104054
     0.166   0.0135898
    0.1665   0.0286443
     0.167   0.0446835
    0.1675   0.0610504
     0.168   0.0770473
    0.1685   0.0919706
     0.169    0.105145
    0.1695    0.115959
      0.17    0.123891
    0.1705     0.12854
     0.171    0.129639
    0.1715    0.127073
     0.172    0.120877
    0.1725    0.111242
     0.173   0.0984966
    0.1735   0.0830952
     0.174   0.0655929
    0.1745   0.0466187
     0.175   0.0268449
    0.1755  0.00695492
     0.176  -0.0123886
    0.1765  -0.0305741
     0.177  -0.0470684
    0.1775  -0.0614386
     0.178  -0.0733692
    0.1785  -0.0826726
     0.179  -0.0892923
    0.1795  -0.0932995
      0.18  -0.0948839
    0.1805  -0.0943374
     0.181  -0.0920329
    0.1815  -0.0884006
     0.182  -0.0839008
    0.1825   -0.078996
     0.183  -0.0741239
    0.1835   -0.069672
     0.184   -0.065957
    0.1845  -0.0632067
     0.185  -0.0615492
    0.1855  -0.0610073
     0.186  -0.0614988
    0.1865  -0.0628446
     0.187  -0.0647801
    0.1875   -0.066974
     0.188  -0.0690492
    0.1885  -0.0706079
     0.189  -0.0712573
    0.1895  -0.0706346
      0.19  -0.0684324
    0.1905  -0.0644191
     0.191  -0.0584562
    0.1915  -0.0505113
     0.192  -0.0406636
    0.1925  -0.0291046
     0.193  -0.0161318
    0.1935  -0.00213705
     0.194    0.012411
    0.1945   0.0269887
     0.195   0.0410425
    0.1955   0.0540166
     0.196   0.0653799
    0.1965    0.074654
     0.197   0.0814369
    0.1975   0.0854249
     0.198   0.0864282
    0.1985   0.0843818
     0.199   0.0793501
    0.1995   0.0715245
       0.2   0.0612149
    0.2005   0.0488351
     0.201   0.0348832
    0.2015   0.0199166
     0.202   0.0045261
    0.2025  -0.0106942
     0.203  -0.0251753
    0.2035  -0.0384009
     0.204  -0.0499328
    0.2045  -0.0594307
     0.205  -0.0666688
    0.2055  -0.0715442
     0.206   -0.074081
    0.2065  -0.0744257
     0.207  -0.0728373
    0.2075  -0.0696707
     0.208  -0.0653562
    0.2085   -0.060373
     0.209  -0.0552218
    0.2095  -0.0503955
      0.21    -0.04635
    0.2105  -0.0434777
     0.211  -0.0420833
    0.2115  -0.0423657
     0.212  -0.0444046
    0.2125  -0.0481534
     0.213  -0.0534403
    0.2135  -0.0599749
     0.214   -0.067363
    0.2145  -0.0751258
     0.215  -0.0827256
    0.2155  -0.0895943
     0.216  -0.0951647
    0.2165  -0.0989027
     0.217   -0.100337
    0.2175  -0.0990893
     0.218  -0.0948965
    0.2185  -0.0876301
     0.219  -0.0773088
    0.2195  -0.0641023
      0.22  -0.0483291
    0.2205  -0.0304453
     0.221  -0.0110278
    0.2215  0.00925121
     0.222   0.0296531
    0.2225   0.0494064
     0.223   0.0677433
    0.2235   0.0839352
     0.224   0.0973289
    0.2245    0.107377
     0.225    0.113669
    0.2255    0.115946
     0.226    0.114123
    0.2265    0.108288
     0.227   0.0987021
    0.2275   0.0857899
     0.228   0.0701186
    0.2285   0.0523727
     0.229   0.0333226
    0.2295   0.0137878
      0.23  -0.00540194
    0.2305  -0.0234457
     0.231    -0.03961
    0.2315  -0.0532641
     0.232  -0.0639098
    0.2325  -0.0712058
     0.233   -0.074983
    0.2335   -0.075253
     0.234  -0.0722058
    0.2345  -0.0662001
     0.235  -0.0577439
    0.2355  -0.0474681
     0.236  -0.0360944
    0.2365  -0.0243967
     0.237  -0.0131612
    0.2375  -0.00314548
     0.238  0.00496239
    0.2385   0.0105799
     0.239   0.0132624
    0.2395   0.0127274
      0.24  0.00887203
    0.2405  0.00178064
     0.241  -0.00827697
    0.2415  -0.0208564
     0.242  -0.0353592
    0.2425   -0.051061
     0.243  -0.0671464
    0.2435    -0.08275
     0.244  -0.0969988
    0.2445   -0.109057
     0.245   -0.118171
    0.2455   -0.123704
     0.246   -0.125178
    0.2465   -0.122297
     0.247   -0.114963
    0.2475   -0.103291
     0.248  -0.0876058
    0.2485  -0.0684291
     0.249  -0.0464601
    0.2495  -0.0225451
      0.25  0.00236031
    0.2505   0.0272342
     0.251   0.0510357
    0.2515   0.0727534
     0.252   0.0914533
    0.2525    0.106323
     0.253    0.116711
    0.2535    0.122158
     0.254    0.122424
    0.2545    0.117493
     0.255    0.107582
    0.2555   0.0931314
     0.256   0.0747814
    0.2565   0.0533471
     0.257   0.0297784
    0.2575  0.00511672
     0.258  -0.0195542
    0.2585  -0.0431593
     0.259   -0.064683
    0.2595  -0.0832168
      0.26  -0.0980032
    0.2605    -0.10847
     0.261    -0.11426
    0.2615   -0.115244
     0.262   -0.111529
    0.2625   -0.103452
     0.263   -0.091561
    0.2635  -0.0765908
     0.264  -0.0594235
    0.2645  -0.0410467
     0.265  -0.0225026
    0.2655  -0.00483733
     0.266   0.0109517
    0.2665   0.0239664
     0.267   0.0334526
    0.2675   0.0388392
     0.268   0.0397673
    0.2685     0.03611
     0.269   0.0279796
    0.2695   0.0157246
      0.27  -8.65801e-05
    0.2705  -0.0186915
     0.271  -0.0391703
    0.2715  -0.0604896
     0.272   -0.081553
    0.2725   -0.101255
     0.273   -0.118534
    0.2735   -0.132428
     0.274    -0.14212
    0.2745   -0.146982
     0.275   -0.146607
    0.2755   -0.140832
     0.276   -0.129749
    0.2765   -0.113701
     0.277  -0.0932741
    0.2775   -0.069268
     0.278  -0.0426611
    0.2785  -0.0145669
     0.279   0.0138184
    0.2795   0.0412704
      0.28   0.0665948
    0.2805   0.0886829
     0.281    0.106565
    0.2815    0.119455
     0.282     0.12679
    0.2825    0.128257
     0.283    0.123807
    0.2835     0.11366
     0.284   0.0982934
    0.2845   0.0784226
     0.285   0.0549655
    0.2855   0.0290007
     0.286  0.00171623
    0.2865  -0.0256456
     0.287   -0.051847
    0.2875  -0.0757134
     0.288  -0.0961882
    0.2885   -0.112383
     0.289   -0.123617
    0.2895   -0.129455
      0.29   -0.129717
    0.2905   -0.124498
     0.291   -0.114152
    0.2915   -0.099279
     0.292  -0.0806966
    0.2925  -0.0593961
     0.293  -0.0364957
    0.2935  -0.0131855
     0.294  0.00933068
    0.2945   0.0298944
     0.295    0.047449
    0.2955   0.0610917
     0.296   0.0701179
    0.2965   0.0740558
     0.297   0.0726899
    0.2975   0.0660721
     0.298   0.0545198
    0.2985   0.0386011
     0.299   0.0191073
    0.2995  -0.00298455
       0.3   -0.026559
    0.3005  -0.0504163
     0.301  -0.0733306
    0.3015  -0.0941093
     0.302   -0.111652
    0.3025   -0.125003
     0.303   -0.133402
    0.3035   -0.136318
     0.304   -0.133478
    0.3045   -0.124882
     0.305   -0.110806
    0.3055  -0.0917876
     0.306  -0.0686035
    0.3065   -0.042234
     0.307  -0.0138169
    0.3075   0.0154049
     0.308   0.0441426
    0.3085   0.0711214
     0.309   0.0951408
    0.3095    0.115131
      0.31    0.130205
    0.3105    0.139697
     0.311    0.143197
    0.3115     0.14057
     0.312    0.131961
    0.3125    0.117788
     0.313   0.0987221
    0.3135   0.0756582
     0.314   0.0496683
    0.3145   0.0219538
     0.315  -0.00621303
    0.3155  -0.0335484
     0.316   -0.058818
    0.3165  -0.0808951
     0.317  -0.0988134
    0.3175   -0.111812
     0.318    -0.11937
    0.3185   -0.121233
     0.319   -0.117419
    0.3195    -0.10822
      0.32  -0.0941855
    0.3205  -0.0760948
     0.321  -0.0549183
    0.3215  -0.0317694
     0.322  -0.00785072
    0.3225   0.0156047
     0.323   0.0373936
    0.3235   0.0564005
     0.324   0.0716521
    0.3245   0.0823639
     0.325   0.0879779
    0.3255   0.0881899
     0.326   0.0829637
    0.3265   0.0725323
     0.327    0.057387
    0.3275   0.0382528
     0.328   0.0160538
    0.3285  -0.00813208
     0.329  -0.0331251
    0.3295  -0.0577007
      0.33   -0.080649
    0.3305   -0.100833
     0.331   -0.117244
    0.3315   -0.129049
     0.332   -0.135634
    0.3325   -0.136628
     0.333    -0.13193
    0.3335   -0.121704
     0.334    -0.10638
    0.3345  -0.0866274
     0.335  -0.0633282
    0.3355  -0.0375313
     0.336  -0.0104049
    0.3365   0.0168196
     0.337    0.042906
    0.3375    0.066672
     0.338   0.0870445
    0.3385    0.103111
     0.339     0.11416
    0.3395     0.11972
      0.34    0.119572
    0.3405    0.113767
     0.341     0.10262
    0.3415   0.0866926
     0.342   0.0667665
    0.3425   0.0438059
     0.343   0.0189106
    0.3435  -0.00673732
     0.344  -0.0319293
    0.3445  -0.0554883
     0.345  -0.0763249
    0.3455  -0.0934879
     0.346    -0.10621
    0.3465   -0.113941
     0.347   -0.116377
    0.3475   -0.113469
     0.348   -0.105425
    0.3485  -0.0927022
     0.349  -0.0759763
    0.3495  -0.0561138
      0.35  -0.0341267
    0.3505  -0.0111229
     0.351   0.0117476
    0.3515   0.0333484
     0.352   0.0526119
    0.3525   0.0685903
     0.353   0.0805013
    0.3535   0.0877647
     0.354     0.09003
    0.3545   0.0871924
     0.355   0.0793971
    0.3555   0.0670305
     0.356   0.0507015
    0.3565   0.0312112
     0.357  0.00951293
    0.3575  -0.0133339
     0.358  -0.0362151
    0.3585  -0.0580163
     0.359  -0.0776761
    0.3595  -0.0942372
      0.36   -0.106892
    0.3605   -0.115023
     0.361   -0.118227
    0.3615    -0.11634
     0.362   -0.109439
    0.3625  -0.0978422
     0.363  -0.0820883
    0.3635  -0.0629137
     0.364  -0.0412144
    0.3645  -0.0180032
     0.365   0.0056387
    0.3655   0.0286144
     0.366   0.0498631
    0.3665   0.0684109
     0.367   0.0834165
    0.3675   0.0942108
     0.368    0.100327
    0.3685    0.101524
     0.369    0.097793
    0.3695    0.089359
      0.37   0.0766677
    0.3705   0.0603626
     0.371   0.0412529
    0.3715   0.0202732
     0.372  -0.00156144
    0.3725  -0.0232056
     0.373  -0.0436333
    0.3735  -0.0618877
     0.374  -0.0771261
    0.3745  -0.0886598
     0.375  -0.0959858
    0.3755  -0.0988103
     0.376  -0.0970604
    0.3765  -0.0908863
     0.377  -0.0806522
    0.3775  -0.0669169
     0.378  -0.0504054
    0.3785  -0.0319721
     0.379   -0.012559
    0.3795  0.00685137
      0.38   0.0252837
    0.3805   0.0418173
     0.381   0.0556305
    0.3815   0.0660399
     0.382   0.0725331
    0.3825   0.0747922
     0.383   0.0727079
    0.3835   0.0663843
     0.384   0.0561319
    0.3845   0.0424517
     0.385   0.0260096
    0.3855   0.0076034
     0.386  -0.0118768
    0.3865  -0.0314921
     0.387  -0.0503006
    0.3875  -0.0674027
     0.388  -0.0819848
    0.3885  -0.0933576
     0.389   -0.100989
    0.3895   -0.104527
      0.39   -0.103819
    0.3905  -0.0989159
     0.391  -0.0900655
    0.3915  -0.0777042
     0.392  -0.0624311
    0.3925  -0.0449788
     0.393  -0.0261776
    0.3935  -0.00691407
     0.394    0.011912
    0.3945    0.029431
     0.395   0.0448453
    0.3955   0.0574667
     0.396   0.0667492
    0.3965   0.0723137
     0.397    0.073965
    0.3975    0.071699
     0.398    0.065701
    0.3985   0.0563356
     0.399   0.0441259
    0.3995   0.0297274
       0.4   0.0138941
    0.4005  -0.00255923
     0.401  -0.0187974
    0.4015  -0.0340061
     0.402  -0.0474316
    0.4025  -0.0584171
     0.403  -0.0664342
    0.4035  -0.0711078
     0.404  -0.0722329
    0.4045  -0.0697832
     0.405  -0.0639114
    0.4055  -0.0549395
     0.406  -0.0433418
    0.4065  -0.0297201
     0.407  -0.0147732
    0.4075  0.000738456
     0.408   0.0160307
    0.4085   0.0303349
     0.409   0.0429349
    0.4095    0.053203
      0.41   0.0606296
    0.4105   0.0648479
     0.411   0.0656508
    0.4115   0.0629999
     0.412   0.0570268
    0.4125   0.0480251
     0.413   0.0364351
    0.4135   0.0228214
     0.414  0.00784405
    0.4145  -0.00777395
     0.415  -0.0232826
    0.4155  -0.0379417
     0.416  -0.0510568
    0.4165  -0.0620127
     0.417  -0.0703029
    0.4175  -0.0755529
     0.418  -0.0775381
    0.4185  -0.0761922
     0.419  -0.0716098
    0.4195  -0.0640402
      0.42  -0.0538728
    0.4205  -0.0416173
     0.421  -0.0278772
    0.4215  -0.0133192
     0.422   0.0013601
    0.4225   0.0154692
     0.423   0.0283551
    0.4235   0.0394358
     0.424   0.0482273
    0.4245   0.0543671
     0.425   0.0576304
    0.4255   0.0579398
     0.426   0.0553667
    0.4265   0.0501269
     0.427   0.0425674
    0.4275   0.0331474
     0.428   0.0224142
    0.4285   0.0109744
     0.429  -0.000537473
    0.4295  -0.0114913
      0.43  -0.0212934
    0.4305  -0.0294163
     0.431  -0.0354255
    0.4315      -0.039
     0.432  -0.0399487
    0.4325  -0.0382188
     0.433  -0.0338977
    0.4335  -0.0272078
     0.434  -0.0184947
    0.4345  -0.00820859
     0.435  0.00311871
    0.4355   0.0149011
     0.436   0.0265283
    0.4365   0.0373962
     0.437    0.046938
    0.4375   0.0546523
     0.438    0.060128
    0.4385    0.063065
     0.439   0.0632883
    0.4395    0.060757
      0.44   0.0555654
    0.4405   0.0479381
     0.441    0.038218
    0.4415   0.0268491
     0.442   0.0143539
    0.4425  0.00130703
     0.443  -0.0116933
    0.4435   -0.024055
     0.444  -0.0352217
    0.4445  -0.0446993
     0.445  -0.0520807
    0.4455  -0.0570648
     0.446  -0.0594706
    0.4465  -0.0592449
     0.447  -0.0564646
    0.4475  -0.0513303
     0.448  -0.0441561
    0.4485  -0.0353524
     0.449  -0.0254043
    0.4495   -0.014846
      0.45  -0.00423417
    0.4505  0.00588111
     0.451    0.014984
    0.4515   0.0226189
     0.452   0.0284128
    0.4525    0.032094
     0.453    0.033505
    0.4535   0.0326093
     0.454   0.0294926
    0.4545   0.0243573
     0.455   0.0175111
    0.4555   0.0093503
     0.456  0.000338766
    0.4565  -0.00901684
     0.457  -0.0181935
    0.4575  -0.0266795
     0.458  -0.0340009
    0.4585  -0.0397465
     0.459  -0.0435892
    0.4595   -0.045303
      0.46   -0.044775
    0.4605  -0.0420117
     0.461  -0.0371381
    0.4615  -0.0303923
     0.462  -0.0221134
    0.4625   -0.012724
     0.463  -0.00270881
    0.4635   0.0074096
     0.464   0.0170979
    0.4645   0.0258388
     0.465   0.0331581
    0.4655   0.0386482
     0.466   0.0419897
    0.4665   0.0429675
     0.467   0.0414825
    0.4675   0.0375568
     0.468   0.0313329
    0.4685   0.0230675
     0.469   0.0131185
    0.4695  0.00192805
      0.47  -0.00999989
    0.4705   -0.022124
     0.471  -0.0338924
    0.4715  -0.0447702
     0.472  -0.0542657
    0.4725  -0.0619546
     0.473  -0.0675013
    0.4735   -0.070675
     0.474  -0.0713603
    0.4745  -0.0695641
     0.475  -0.0654131
    0.4755  -0.0591478
     0.476    -0.05111
    0.4765   -0.041725
     0.477    -0.03148
    0.4775  -0.0208987
     0.478  -0.0105155
    0.4785  -0.000847687
     0.479  0.00763069
    0.4795   0.0145127
      0.48   0.0194792
    0.4805   0.0223148
     0.481   0.0229188
    0.4815   0.0213102
     0.482   0.0176261
    0.4825   0.0121149
     0.483  0.00512319
    0.4835  -0.0029224
     0.484   -0.011537
    0.4845   -0.020203
     0.485  -0.0283965
    0.4855  -0.0356154
     0.486  -0.0414048
    0.4865  -0.0453817
     0.487  -0.0472553
    0.4875  -0.0468427
     0.488  -0.0440795
    0.4885  -0.0390241
     0.489  -0.0318565
    0.4895  -0.0228696
      0.49  -0.0124561
    0.4905  -0.00108941
     0.491    0.010699
    0.4915   0.0223462
     0.492   0.0332852
    0.4925   0.0429734
     0.493   0.0509199
    0.4935   0.0567103
     0.494   0.0600277
    0.4945   0.0606695
     0.495   0.0585583
    0.4955   0.0537463
     0.496   0.0464146
    0.4965   0.0368643
     0.497   0.0255037
    0.4975    0.012828
     0.498  -0.000603342
    0.4985  -0.0141939
     0.499  -0.0273386
    0.4995  -0.0394536
       0.5  -0.0500036
    0.5005  -0.0585287
     0.501  -0.0646661
    0.5015  -0.0681679
     0.502  -0.0689131
    0.5025  -0.0669133
     0.503  -0.0623118
    0.5035  -0.0553765
     0.504  -0.0464865
    0.5045  -0.0361131
     0.505  -0.0247962
    0.5055  -0.0131178
     0.506  -0.0016727
    0.5065  0.00896115
     0.507   0.0182513
    0.5075   0.0257376
     0.508   0.0310551
    0.5085   0.0339524
     0.509   0.0343043
    0.5095   0.0321182
      0.51    0.027534
    0.5105   0.0208173
     0.511   0.0123459
    0.5115  0.00259137
     0.512  -0.0079048
    0.5125  -0.0185582
     0.513  -0.0287708
    0.5135  -0.0379618
     0.514  -0.0455965
    0.5145   -0.051214
     0.515  -0.0544513
    0.5155  -0.0550622
     0.516   -0.052931
    0.5165  -0.0480793
     0.517  -0.0406667
    0.5175   -0.030984
     0.518  -0.0194404
    0.5185  -0.00654466
     0.519  0.00711942
    0.5195   0.0209201
      0.52   0.0342086
    0.5205   0.0463504
     0.521   0.0567557
    0.5215   0.0649092
     0.522    0.070395
    0.5225   0.0729176
     0.523    0.072317
    0.5235   0.0685776
     0.524   0.0618293
    0.5245   0.0523431
     0.525   0.0405181
    0.5255   0.0268638
     0.526   0.0119759
    0.5265  -0.00349126
     0.527  -0.0188559
    0.5275   -0.033441
     0.528   -0.046606
    0.5285  -0.0577778
     0.529  -0.0664777
    0.5295  -0.0723444
      0.53  -0.0751503
    0.5305  -0.0748134
     0.531  -0.0713999
    0.5315  -0.0651212
     0.532  -0.0563235
    0.5325  -0.0454703
     0.533  -0.0331205
    0.5335     -0.0199
     0.534  -0.00647223
    0.5345  0.00649492
     0.535   0.0183614
    0.5355   0.0285463
     0.536   0.0365562
    0.5365   0.0420091
     0.537   0.0446534
    0.5375   0.0443797
     0.538   0.0412263
    0.5385   0.0353777
     0.539   0.0271548
    0.5395   0.0169996
      0.54  0.00545329
    0.5405  -0.00687044
     0.541  -0.0193156
    0.5415  -0.0312163
     0.542    -0.04193
    0.5425  -0.0508692
     0.543   -0.057531
    0.5435  -0.0615223
     0.544  -0.0625803
    0.5445  -0.0605857
     0.545  -0.0555701
    0.5455  -0.0477152
     0.546  -0.0373454
    0.5465  -0.0249126
     0.547  -0.0109759
    0.5475  0.00382519
     0.548   0.0188009
    0.5485   0.0332438
     0.549   0.0464629
    0.5495   0.0578165
      0.55   0.0667434
    0.5505   0.0727901
     0.551   0.0756328
    0.5515   0.0750936
     0.552   0.0711494
    0.5525    0.063934
     0.553   0.0537322
    0.5535   0.0409669
     0.554   0.0261798
    0.5545    0.010006
     0.555  -0.00685524
    0.5555  -0.0236736
     0.556  -0.0397216
    0.5565  -0.0543087
     0.557  -0.0668139
    0.5575  -0.0767141
     0.558  -0.0836087
    0.5585  -0.0872385
     0.559   -0.087497
    0.5595  -0.0844343
      0.56  -0.0782556
    0.5605  -0.0693089
     0.561  -0.0580695
    0.5615  -0.0451157
     0.562  -0.0311013
    0.5625  -0.0167233
     0.563   -0.002689
    0.5635   0.0103184
     0.564   0.0216725
    0.5645   0.0308338
     0.565   0.0373754
    0.5655    0.041003
     0.566   0.0415691
    0.5665   0.0390792
     0.567   0.0336914
    0.5675   0.0257084
     0.568   0.0155618
    0.5685  0.00379149
     0.569  -0.00898129
    0.5695  -0.0220844
      0.57  -0.0348278
    0.5705  -0.0465372
     0.571  -0.0565871
    0.5715  -0.0644317
     0.572  -0.0696317
    0.5725  -0.0718761
     0.573  -0.0709975
    0.5735  -0.0669811
     0.574   -0.059966
    0.5745  -0.0502389
     0.575  -0.0382212
    0.5755   -0.024449
     0.576  -0.00954831
    0.5765  0.00579491
     0.577   0.0208669
    0.5775   0.0349603
     0.578   0.0474073
    0.5785    0.057612
     0.579   0.0650782
    0.5795   0.0694337
      0.58   0.0704475
    0.5805   0.0680416
     0.581   0.0622942
    0.5815   0.0534374
     0.582   0.0418453
    0.5825   0.0280173
     0.583   0.0125547
    0.5835  -0.00386727
     0.584  -0.0205312
    0.5845  -0.0367104
     0.585  -0.0517034
    0.5855  -0.0648654
     0.586  -0.0756393
    0.5865    -0.08358
     0.587  -0.0883752
    0.5875  -0.0898593
     0.588  -0.0880197
    0.5885  -0.0829972
     0.589  -0.0750773
    0.5895  -0.0646773
      0.59   -0.052324
    0.5905  -0.0386292
     0.591  -0.0242598
    0.5915  -0.0099056
     0.592   0.0037535
    0.5925   0.0160798
     0.593   0.0265081
    0.5935    0.034572
     0.594   0.0399256
    0.5945   0.0423597
     0.595   0.0418103
    0.5955   0.0383614
     0.596   0.0322399
    0.5965   0.0238035
     0.597   0.0135232
    0.5975  0.00195986
     0.598  -0.0102637
    0.5985  -0.0224928
     0.599   -0.034073
    0.5995   -0.044382
       0.6  -0.0528596
    0.6005   -0.059035
     0.601  -0.0625493
    0.6015  -0.0631733
     0.602  -0.0608185
    0.6025  -0.0555411
     0.603  -0.0475398
    0.6035  -0.0371465
     0.604  -0.0248102
    0.6045  -0.0110763
     0.605  0.00343991
    0.6055   0.0180817
     0.606   0.0321824
    0.6065   0.0450967
     0.607   0.0562311
    0.6075   0.0650719
     0.608   0.0712091
    0.6085   0.0743558
     0.609   0.0743616
    0.6095   0.0712191
      0.61   0.0650649
    0.6105   0.0561715
     0.611   0.0449362
    0.6115    0.031861
     0.612   0.0175293
    0.6125  0.00257905
     0.613  -0.0123274
    0.6135   -0.026534
     0.614  -0.0394211
    0.6145  -0.0504342
     0.615  -0.0591086
    0.6155   -0.065091
     0.616  -0.0681545
    0.6165  -0.0682084
     0.617   -0.065301
    0.6175  -0.0596163
     0.618  -0.0514644
    0.6185  -0.0412653
     0.619  -0.0295288
    0.6195  -0.0168292
      0.62  -0.00377826
    0.6205  0.00900454
     0.621   0.0209209
    0.6215    0.031422
     0.622   0.0400337
    0.6225   0.0463785
     0.623   0.0501926
    0.6235   0.0513373
     0.624   0.0498041
    0.6245   0.0457145
     0.625   0.0393124
    0.6255   0.0309521
     0.626   0.0210794
    0.6265   0.0102104
     0.627  -0.00109469
    0.6275  -0.0122582
     0.628  -0.0227135
    0.6285   -0.031932
     0.629  -0.0394482
    0.6295  -0.0448826
      0.63  -0.0479587
    0.6305  -0.0485165
     0.631  -0.0465198
    0.6315  -0.0420572
     0.632  -0.0353377
    0.6325  -0.0266805
     0.633  -0.0164995
    0.6335  -0.00528314
     0.634   0.0064285
    0.6345   0.0180698
     0.635    0.029076
    0.6355   0.0389102
     0.636   0.0470884
    0.6365   0.0532019
     0.637   0.0569364