# This file was created Mon Mar  2 22:25:15 2026
# Created by:
#                   :-) GROMACS - gmx dos, 2025.4-Homebrew (-:
# 
# Executable:   /opt/homebrew/bin/../Cellar/gromacs/2025.4/bin/gmx
# Data prefix:  /opt/homebrew/bin/../Cellar/gromacs/2025.4
# Working dir:  /Users/mackenziehenley/cp2k/D2O_ice/GroMACK
# Command line:
#   gmx dos -f md_dos_fixed.trr -s md_dos_fixed.tpr -dos dos_fixed.xvg
# gmx dos is part of G R O M A C S:
#
# Georgetown Riga Oslo Madrid Amsterdam Chisinau Stockholm
#
@    title "Velocity autocorrelation function"
@    xaxis  label "Time (ps)"
@    yaxis  label "C(t)"
@TYPE xy
         0           1
    0.0005    0.992071
     0.001    0.968612
    0.0015     0.93057
     0.002    0.879483
    0.0025    0.817397
     0.003    0.746781
    0.0035    0.670411
     0.004    0.591239
    0.0045    0.512265
     0.005    0.436395
    0.0055    0.366314
     0.006    0.304363
    0.0065    0.252437
     0.007    0.211905
    0.0075    0.183551
     0.008     0.16755
    0.0085    0.163461
     0.009    0.170269
    0.0095    0.186429
      0.01    0.209958
    0.0105    0.238535
     0.011    0.269613
    0.0115    0.300556
     0.012    0.328766
    0.0125    0.351811
     0.013    0.367547
    0.0135    0.374224
     0.014    0.370573
    0.0145    0.355867
     0.015    0.329956
    0.0155    0.293277
     0.016    0.246835
    0.0165     0.19215
     0.017    0.131186
    0.0175   0.0662567
     0.018  -8.72373e-05
    0.0185   -0.065182
     0.019   -0.126379
    0.0195   -0.181176
      0.02   -0.227336
    0.0205   -0.262999
     0.021   -0.286774
    0.0215   -0.297807
     0.022   -0.295826
    0.0225    -0.28116
     0.023   -0.254724
    0.0235   -0.217979
     0.024   -0.172873
    0.0245   -0.121743
     0.025  -0.0672153
    0.0255  -0.0120806
     0.026   0.0408322
    0.0265   0.0887878
     0.027    0.129271
    0.0275    0.160103
     0.028     0.17954
    0.0285    0.186357
     0.029    0.179901
    0.0295    0.160122
      0.03    0.127573
    0.0305   0.0833866
     0.031   0.0292182
    0.0315  -0.0328284
     0.032     -0.1003
    0.0325   -0.170506
     0.033   -0.240645
    0.0335   -0.307929
     0.034   -0.369713
    0.0345   -0.423616
     0.035   -0.467623
    0.0355   -0.500178
     0.036   -0.520246
    0.0365   -0.527361
     0.037   -0.521635
    0.0375   -0.503747
     0.038   -0.474907
    0.0385   -0.436788
     0.039   -0.391443
    0.0395   -0.341205
      0.04   -0.288566
    0.0405   -0.236062
     0.041   -0.186145
    0.0415    -0.14107
     0.042   -0.102786
    0.0425  -0.0728436
     0.043  -0.0523227
    0.0435  -0.0417861
     0.044  -0.0412545
    0.0445  -0.0502105
     0.045  -0.0676271
    0.0455  -0.0920222
     0.046   -0.121535
    0.0465   -0.154018
     0.047    -0.18715
    0.0475   -0.218545
     0.048    -0.24588
    0.0485   -0.267004
     0.049   -0.280051
    0.0495   -0.283532
      0.05   -0.276413
    0.0505   -0.258166
     0.051   -0.228806
    0.0515   -0.188887
     0.052   -0.139488
    0.0525  -0.0821618
     0.053  -0.0188677
    0.0535    0.048117
     0.054    0.116301
    0.0545    0.183095
     0.055    0.245925
    0.0555    0.302357
     0.056    0.350206
    0.0565    0.387635
     0.057     0.41324
    0.0575    0.426117
     0.058    0.425897
    0.0585    0.412765
     0.059    0.387451
    0.0595    0.351193
      0.06    0.305681
    0.0605    0.252975
     0.061    0.195414
    0.0615    0.135506
     0.062   0.0758106
    0.0625   0.0188303
     0.063  -0.0331085
    0.0635   -0.077956
     0.064   -0.114029
    0.0645   -0.140081
     0.065   -0.155355
    0.0655   -0.159608
     0.066   -0.153115
    0.0665   -0.136646
     0.067   -0.111421
    0.0675  -0.0790453
     0.068  -0.0414261
    0.0685  -0.000673983
     0.069   0.0410004
    0.0695   0.0813959
      0.07    0.118428
    0.0705     0.15023
     0.071     0.17524
    0.0715    0.192276
     0.072    0.200587
    0.0725    0.199892
     0.073     0.19038
    0.0735    0.172706
     0.074    0.147947
    0.0745    0.117549
     0.075   0.0832553
    0.0755   0.0470111
     0.076   0.0108718
    0.0765  -0.0231031
     0.077  -0.0529519
    0.0775  -0.0769083
     0.078  -0.0934901
    0.0785   -0.101572
     0.079   -0.100445
    0.0795  -0.0898495
      0.08  -0.0699915
    0.0805  -0.0415365
     0.081  -0.00557775
    0.0815   0.0364125
     0.082   0.0826515
    0.0825    0.131128
     0.083    0.179698
    0.0835    0.226181
     0.084    0.268462
    0.0845    0.304594
     0.085     0.33288
    0.0855    0.351957
     0.086    0.360857
    0.0865    0.359049
     0.087    0.346462
    0.0875    0.323488
     0.088    0.290963
    0.0885    0.250123
     0.089     0.20255
    0.0895    0.150096
      0.09   0.0947985
    0.0905   0.0387842
     0.091  -0.0158238
    0.0915  -0.0670034
     0.092   -0.112923
    0.0925   -0.152019
     0.093   -0.183067
    0.0935   -0.205224
     0.094   -0.218068
    0.0945   -0.221601
     0.095   -0.216244
    0.0955   -0.202809
     0.096   -0.182451
    0.0965   -0.156604
     0.097   -0.126912
    0.0975  -0.0951392
     0.098  -0.0630882
    0.0985  -0.0325082
     0.099  -0.00501249
    0.0995   0.0179983
       0.1   0.0354009
    0.1005   0.0464001
     0.101   0.0505619
    0.1015   0.0478299
     0.102   0.0385215
    0.1025    0.023307
     0.103   0.0031712
    0.1035  -0.0206407
     0.104  -0.0466885
    0.1045  -0.0734119
     0.105  -0.0992108
    0.1055   -0.122527
     0.106   -0.141922
    0.1065   -0.156151
     0.107   -0.164226
    0.1075   -0.165462
     0.108   -0.159516
    0.1085   -0.146403
     0.109   -0.126494
    0.1095   -0.100504
      0.11  -0.0694554
    0.1105  -0.0346303
     0.111  0.00248963
    0.1115   0.0402929
     0.112   0.0771141
    0.1125    0.111312
     0.113    0.141345
    0.1135    0.165845
     0.114    0.183678
    0.1145    0.193997
     0.115    0.196282
    0.1155    0.190356
     0.116    0.176401
    0.1165    0.154939
     0.117    0.126811
    0.1175   0.0931343
     0.118   0.0552523
    0.1185   0.0146687
     0.119  -0.0270197
    0.1195  -0.0681964
      0.12   -0.107298
    0.1205   -0.142881
     0.121   -0.173689
    0.1215   -0.198699
     0.122   -0.217167
    0.1225   -0.228654
     0.123   -0.233037
    0.1235   -0.230507
     0.124   -0.221552
    0.1245   -0.206928
     0.125    -0.18761
    0.1255   -0.164746
     0.126   -0.139592
    0.1265   -0.113452
     0.127  -0.0876129
    0.1275  -0.0632801
     0.128  -0.0415226
    0.1285   -0.023223
     0.129  -0.00903885
    0.1295  0.000624237
      0.13  0.00562668
    0.1305  0.00609519
     0.131  0.00241015
    0.1315  -0.00481996
     0.132  -0.0147949
    0.1325  -0.0265684
     0.133  -0.0391001
    0.1335  -0.0513117
     0.134  -0.0621448
    0.1345  -0.0706166
     0.135  -0.0758713
    0.1355  -0.0772246
     0.136  -0.0741992
    0.1365  -0.0665499
     0.137  -0.0542766
    0.1375  -0.0376249
     0.138  -0.0170754
    0.1385  0.00668022
     0.139   0.0327715
    0.1395   0.0601916
      0.14   0.0878452
    0.1405    0.114601
     0.141    0.139344
    0.1415    0.161032
     0.142     0.17874
    0.1425    0.191704
     0.143    0.199358
    0.1435    0.201358
     0.144    0.197594
    0.1445    0.188199
     0.145    0.173535
    0.1455    0.154178
     0.146    0.130887
    0.1465    0.104571
     0.147   0.0762436
    0.1475   0.0469755
     0.148   0.0178475
    0.1485  -0.0100986
     0.149  -0.0359052
    0.1495  -0.0587396
      0.15  -0.0779268
    0.1505  -0.0929763
     0.151   -0.103596
    0.1515     -0.1097
     0.152   -0.111405
    0.1525   -0.109013
     0.153   -0.102994
    0.1535  -0.0939553
     0.154  -0.0826029
    0.1545  -0.0697061
     0.155  -0.0560548
    0.1555  -0.0424192
     0.156  -0.0295107
    0.1565  -0.0179485
     0.157  -0.00823033
    0.1575  -0.000711542
     0.158  0.00440854
    0.1585  0.00709126
     0.159  0.00745494
    0.1595  0.00576282
      0.16    0.002404
    0.1605  -0.00213259
     0.161  -0.00728866
    0.1615  -0.0124699
     0.162  -0.0170813
    0.1625  -0.0205613
     0.163  -0.0224141
    0.1635   -0.022238
     0.164  -0.0197479
    0.1645  -0.0147923
     0.165  -0.00736201
    0.1655  0.00240814
     0.166   0.0142452
    0.1665   0.0277516
     0.167   0.0424245
    0.1675    0.057681
     0.168   0.0728874
    0.1685   0.0873901
     0.169    0.100548
    0.1695    0.111766
      0.17    0.120519
    0.1705    0.126384
     0.171    0.129053
    0.1715    0.128354
     0.172    0.124253
    0.1725    0.116855
     0.173    0.106402
    0.1735   0.0932554
     0.174   0.0778779
    0.1745   0.0608123
     0.175   0.0426538
    0.1755   0.0240213
     0.176  0.00552847
    0.1765  -0.0122442
     0.177  -0.0287753
    0.1775  -0.0436242
     0.178  -0.0564486
    0.1785  -0.0670158
     0.179  -0.0752092
    0.1795  -0.0810269
      0.18  -0.0845763
    0.1805  -0.0860617
     0.181  -0.0857676
    0.1815  -0.0840393
     0.182  -0.0812587
    0.1825  -0.0778214
     0.183  -0.0741116
    0.1835  -0.0704807
     0.184  -0.0672265
    0.1845   -0.064577
     0.185  -0.0626794
    0.1855  -0.0615926
     0.186  -0.0612866
    0.1865  -0.0616466
     0.187  -0.0624827
    0.1875  -0.0635433
     0.188  -0.0645328
    0.1885  -0.0651323
     0.189   -0.065021
    0.1895  -0.0638979
      0.19  -0.0615037
    0.1905  -0.0576388
     0.191  -0.0521788
    0.1915  -0.0450865
     0.192  -0.0364175
    0.1925   -0.026322
     0.193  -0.0150404
    0.1935  -0.00289403
     0.194  0.00972893
    0.1945   0.0223913
     0.195    0.034628
    0.1955   0.0459689
     0.196   0.0559625
    0.1965    0.064199
     0.197   0.0703313
    0.1975   0.0740936
     0.198    0.075315
    0.1985     0.07393
     0.199   0.0699815
    0.1995   0.0636206
       0.2   0.0550988
    0.2005   0.0447564
     0.201   0.0330061
    0.2015   0.0203122
     0.202   0.0071678
    0.2025  -0.00592944
     0.203  -0.0185022
    0.2035  -0.0301167
     0.204  -0.0404039
    0.2045  -0.0490768
     0.205  -0.0559442
    0.2055  -0.0609177
     0.206  -0.0640148
    0.2065  -0.0653555
     0.207  -0.0651527
    0.2075   -0.063699
     0.208  -0.0613478
    0.2085  -0.0584916
     0.209  -0.0555386
    0.2095  -0.0528868
      0.21  -0.0509002
    0.2105  -0.0498866
     0.211   -0.050077
    0.2115  -0.0516106
     0.212  -0.0545248
    0.2125  -0.0587494
     0.213   -0.064109
    0.2135  -0.0703296
     0.214  -0.0770518
    0.2145  -0.0838489
     0.215  -0.0902494
    0.2155  -0.0957623
     0.216  -0.0999044
    0.2165   -0.102228
     0.217   -0.102347
    0.2175   -0.099962
     0.218  -0.0948784
    0.2185  -0.0870237
     0.219  -0.0764556
    0.2195  -0.0633644
      0.22  -0.0480701
    0.2205  -0.0310107
     0.221  -0.0127256
    0.2215  0.00616691
     0.222   0.0249971
    0.2225   0.0430736
     0.223   0.0597157
    0.2235   0.0742857
     0.224   0.0862192
    0.2245    0.095053
     0.225    0.100449
    0.2255     0.10221
     0.226    0.100292
    0.2265   0.0948103
     0.227   0.0860291
    0.2275   0.0743567
     0.228   0.0603236
    0.2285   0.0445592
     0.229   0.0277622
    0.2295   0.0106675
      0.23  -0.00598883
    0.2305   -0.021505
     0.231   -0.035247
    0.2315  -0.0466792
     0.232  -0.0553905
    0.2325   -0.061114
     0.233  -0.0637396
    0.2335  -0.0633186
     0.234  -0.0600613
    0.2345  -0.0543247
     0.235  -0.0465948
    0.2355  -0.0374602
     0.236  -0.0275822
    0.2365  -0.0176593
     0.237  -0.00839132
    0.2375  -0.000441203
     0.238  0.00559991
    0.2385  0.00924534
     0.239     0.01014
    0.2395  0.00808119
      0.24  0.00303191
    0.2405  -0.00487439
     0.241  -0.0153375
    0.2415  -0.0279029
     0.242  -0.0419822
    0.2425  -0.0568809
     0.243  -0.0718318
    0.2435  -0.0860327
     0.244  -0.0986862
    0.2445   -0.109042
     0.245   -0.116432
    0.2455   -0.120312
     0.246   -0.120285
    0.2465   -0.116131
     0.247   -0.107816
    0.2475  -0.0955028
     0.248  -0.0795446
    0.2485  -0.0604746
     0.249  -0.0389825
    0.2495  -0.0158861
      0.25  0.00790525
    0.2505    0.031432
     0.251    0.053728
    0.2515   0.0738656
     0.252   0.0909992
    0.2525    0.104406
     0.253    0.113519
    0.2535    0.117958
     0.254    0.117545
    0.2545    0.112316
     0.255     0.10252
    0.2555   0.0886082
     0.256    0.071215
    0.2565   0.0511262
     0.257   0.0292449
    0.2575  0.00654799
     0.258  -0.0159592
    0.2585  -0.0372906
     0.259  -0.0565263
    0.2595  -0.0728557
      0.26  -0.0856168
    0.2605  -0.0943267
     0.261  -0.0987053
    0.2615  -0.0986878
     0.262  -0.0944274
    0.2625  -0.0862876
     0.263  -0.0748234
    0.2635  -0.0607542
     0.264  -0.0449274
    0.2645  -0.0282764
     0.265  -0.0117742
    0.2655  0.00361587
     0.266   0.0169882
    0.2665   0.0275408
     0.267   0.0346166
    0.2675   0.0377368
     0.268   0.0366272
    0.2685   0.0312327
     0.269   0.0217228
    0.2695  0.00848457
      0.27  -0.00789373
    0.2705  -0.0266504
     0.271   -0.046886
    0.2715  -0.0676065
     0.272  -0.0877713
    0.2725   -0.106344
     0.273   -0.122343
    0.2735   -0.134892
     0.274   -0.143263
    0.2745   -0.146911
     0.275   -0.145511
    0.2755   -0.138966
     0.276   -0.127423
    0.2765   -0.111265
     0.277  -0.0910976
    0.2775  -0.0677208
     0.278  -0.0420952
    0.2785  -0.0152972
     0.279   0.0115298
    0.2795   0.0372288
      0.28    0.060683
    0.2805   0.0808684
     0.281   0.0969023
    0.2815    0.108085
     0.282    0.113932
    0.2825    0.114202
     0.283    0.108901
    0.2835   0.0982918
     0.284   0.0828738
    0.2845   0.0633656
     0.285    0.040669
    0.2855   0.0158271
     0.286  -0.0100245
    0.2865  -0.0357115
     0.287  -0.0600758
    0.2875   -0.082031
     0.288   -0.100613
    0.2885   -0.115024
     0.289   -0.124674
    0.2895   -0.129204
      0.29   -0.128505
    0.2905    -0.12272
     0.291    -0.11224
    0.2915  -0.0976785
     0.292  -0.0798482
    0.2925  -0.0597151
     0.293  -0.0383539
    0.2935  -0.0168943
     0.294  0.00353427
    0.2945   0.0218579
     0.295   0.0371115
    0.2955   0.0484862
     0.296   0.0553689
    0.2965   0.0573738
     0.297   0.0543615
    0.2975   0.0464463
     0.298   0.0339924
    0.2985   0.0175964
     0.299  -0.00194079
    0.2995  -0.0236521
       0.3  -0.0464507
    0.3005  -0.0691827
     0.301  -0.0906825
    0.3015    -0.10983
     0.302   -0.125605
    0.3025   -0.137138
     0.303   -0.143751
    0.3035   -0.144996
     0.304   -0.140672
    0.3045   -0.130843
     0.305   -0.115831
    0.3055  -0.0962067
     0.306    -0.07276
    0.3065  -0.0464672
     0.307  -0.0184441
    0.3075   0.0101054
     0.308   0.0379458
    0.3085   0.0638677
     0.309   0.0867447
    0.3095    0.105586
      0.31    0.119585
    0.3105    0.128152
     0.311    0.130949
    0.3115    0.127901
     0.312    0.119198
    0.3125     0.10529
     0.313   0.0868638
    0.3135   0.0648079
     0.314   0.0401731
    0.3145   0.0141213
     0.315  -0.0121297
    0.3155  -0.0373637
     0.316  -0.0604236
    0.3165   -0.080266
     0.317  -0.0960106
    0.3175   -0.106981
     0.318   -0.112735
    0.3185   -0.113088
     0.319   -0.108115
    0.3195  -0.0981505
      0.32  -0.0837702
    0.3205    -0.06576
     0.321  -0.0450793
    0.3215  -0.0228124
     0.322  -0.000116421
    0.3225    0.021836
     0.323   0.0419133
    0.3235   0.0590805
     0.324   0.0724492
    0.3245   0.0813208
     0.325   0.0852204
    0.3255     0.08392
     0.326   0.0774491
    0.3265   0.0660941
     0.327   0.0503838
    0.3275    0.031064
     0.328  0.00906189
    0.3285  -0.0145592
     0.329  -0.0386509
    0.3295  -0.0620349
      0.33  -0.0835605
    0.3305    -0.10216
     0.331   -0.116899
    0.3315   -0.127024
     0.332   -0.131998
    0.3325   -0.131524
     0.333   -0.125563
    0.3335   -0.114336
     0.334  -0.0983129
    0.3345  -0.0781885
     0.335  -0.0548537
    0.3355  -0.0293502
     0.336  -0.00282301
    0.3365   0.0235348
     0.337   0.0485379
    0.3375   0.0710648
     0.338   0.0901109
    0.3385    0.104835
     0.339      0.1146
    0.3395       0.119
      0.34    0.117881
    0.3405    0.111346
     0.341    0.099749
    0.3415   0.0836783
     0.342   0.0639262
    0.3425   0.0414512
     0.343   0.0173315
    0.3435  -0.00728679
     0.344  -0.0312447
    0.3445  -0.0534255
     0.345  -0.0728078
    0.3455  -0.0885133
     0.346  -0.0998487
    0.3465   -0.106337
     0.347    -0.10774
    0.3475   -0.104065
     0.348    -0.09557
    0.3485  -0.0827408
     0.349  -0.0662729
    0.3495  -0.0470337
      0.35  -0.0260203
    0.3505  -0.00431011
     0.351   0.0169911
    0.3515   0.0368038
     0.352   0.0541266
    0.3525   0.0680847
     0.353   0.0779717
    0.3535   0.0832838
     0.354    0.083743
    0.3545   0.0793105
     0.355   0.0701874
    0.3555   0.0568044
     0.356   0.0398007
    0.3565   0.0199922
     0.357  -0.00166816
    0.3575  -0.0241372
     0.358  -0.0463312
    0.3585  -0.0671793
     0.359  -0.0856745
    0.3595   -0.100922
      0.36   -0.112181
    0.3605   -0.118904
     0.361   -0.120757
    0.3615   -0.117637
     0.362   -0.109681
    0.3625  -0.0972498
     0.363  -0.0809188
    0.3635  -0.0614445
     0.364  -0.0397298
    0.3645  -0.0167801
     0.365  0.00634486
    0.3655    0.028582
     0.366   0.0489152
    0.3665   0.0664236
     0.367   0.0803246
    0.3675   0.0900108
     0.368   0.0950773
    0.3685   0.0953403
     0.369   0.0908436
    0.3695   0.0818561
      0.37    0.068856
    0.3705   0.0525074
     0.371   0.0336268
    0.3715   0.0131428
     0.372  -0.00794965
    0.3725  -0.0286368
     0.373  -0.0479355
    0.3735  -0.0649408
     0.374  -0.0788675
    0.3745  -0.0890887
     0.375  -0.0951639
    0.3755  -0.0968588
     0.376  -0.0941557
    0.3765  -0.0872519
     0.377  -0.0765489
    0.3775  -0.0626313
     0.378  -0.0462367
    0.3785   -0.028219
     0.379  -0.00950592
    0.3795  0.00894695
      0.38   0.0262029
    0.3805   0.0413896
     0.381   0.0537416
    0.3815   0.0626369
     0.382   0.0676264
    0.3825   0.0684554
     0.383   0.0650746
    0.3835   0.0576417
     0.384   0.0465128
    0.3845    0.032224
     0.385   0.0154648
    0.3855  -0.00295627
     0.386  -0.0221515
    0.3865  -0.0411969
     0.387  -0.0591776
    0.3875  -0.0752319
     0.388  -0.0885923
    0.3885  -0.0986224
     0.389   -0.104847
    0.3895   -0.106973
      0.39   -0.104905
    0.3905  -0.0987463
     0.391  -0.0887925
    0.3915  -0.0755185
     0.392  -0.0595522
    0.3925  -0.0416445
     0.393  -0.0226319
    0.3935  -0.00339504
     0.394   0.0151828
    0.3945    0.032259
     0.395   0.0470717
    0.3955   0.0589755
     0.396   0.0674719
    0.3965   0.0722315
     0.397   0.0731087
    0.3975   0.0701466
     0.398   0.0635733
    0.3985   0.0537884
     0.399   0.0413425
    0.3995   0.0269084
       0.4   0.0112467
    0.4005  -0.00483143
     0.401  -0.0205056
    0.4015  -0.0349858
     0.402  -0.0475513
    0.4025  -0.0575851
     0.403  -0.0646041
    0.4035  -0.0682808
     0.404   -0.068459
    0.4045  -0.0651592
     0.405  -0.0585771
    0.4055  -0.0490716
     0.406  -0.0371464
    0.4065  -0.0234234
     0.407  -0.00861187
    0.4075   0.0065281
     0.408   0.0212231
    0.4085   0.0347251
     0.409   0.0463478
    0.4095   0.0555011
      0.41   0.0617189
    0.4105   0.0646818
     0.411   0.0642321
    0.4115   0.0603806
     0.412   0.0533054
    0.4125   0.0433423
     0.413   0.0309674
    0.4135   0.0167727
     0.414  0.00143732
    0.4145  -0.0143069
     0.415   -0.029711
    0.4155  -0.0440458
     0.416  -0.0566371
    0.4165  -0.0668982
     0.417   -0.074358
    0.4175  -0.0786827
     0.418   -0.079691
    0.4185  -0.0773622
     0.419  -0.0718352
    0.4195  -0.0634006
      0.42  -0.0524849
    0.4205  -0.0396287
     0.421  -0.0254592
    0.4215  -0.0106581
     0.422  0.00407173
    0.4225   0.0180411
     0.423   0.0306086
    0.4235   0.0412108
     0.424     0.04939
    0.4245   0.0548149
     0.425    0.057296
    0.4255   0.0567932
     0.426    0.053416
    0.4265   0.0474161
     0.427   0.0391737
    0.4275   0.0291765
     0.428   0.0179942
    0.4285  0.00624893
     0.429  -0.00541677
    0.4295  -0.0163727
      0.43  -0.0260327
    0.4305  -0.0338842
     0.431  -0.0395137
    0.4315   -0.042627
     0.432  -0.0430632
    0.4325  -0.0408025
     0.433  -0.0359658
    0.4335  -0.0288086
     0.434  -0.0197067
    0.4345  -0.00913692
     0.435  0.00234756
    0.4355   0.0141454
     0.436   0.0256379
    0.4365     0.03622
     0.437   0.0453311
    0.4375   0.0524831
     0.438   0.0572844
    0.4385   0.0594602
     0.439   0.0588652
    0.4395   0.0554909
      0.44   0.0494657
    0.4405   0.0410486
     0.441   0.0306151
    0.4415   0.0186392
     0.442    0.005669
    0.4425  -0.00770026
     0.443   -0.020856
    0.4435  -0.0331984
     0.444  -0.0441702
    0.4445  -0.0532832
     0.445  -0.0601429
    0.4455  -0.0644664
     0.446  -0.0660958
    0.4465  -0.0650054
     0.447  -0.0613017
    0.4475  -0.0552166
     0.448  -0.0470952
    0.4485  -0.0373778
     0.449  -0.0265766
    0.4495  -0.0152494
      0.45  -0.00397191
    0.4505  0.00669221
     0.451    0.016219
    0.4515   0.0241508
     0.452   0.0301179
    0.4525   0.0338578
     0.453   0.0352264
    0.4535   0.0342052
     0.454   0.0309004
    0.4545   0.0255375
     0.455   0.0184474
    0.4555   0.0100499
     0.456  0.000830937
    0.4565  -0.00868336
     0.457  -0.0179535
    0.4575  -0.0264553
     0.458  -0.0337067
    0.4585  -0.0392932
     0.459  -0.0428888
    0.4595  -0.0442737
      0.46  -0.0433448
    0.4605  -0.0401222
     0.461  -0.0347477
    0.4615   -0.027478
     0.462  -0.0186717
    0.4625  -0.00877158
     0.463  0.00171852
    0.4635   0.0122585
     0.464   0.0223001
    0.4645   0.0313142
     0.465   0.0388179
    0.4655   0.0443997
     0.466   0.0477398
    0.4665   0.0486271
     0.467   0.0469704
    0.4675   0.0428029
     0.468   0.0362817
    0.4685   0.0276798
     0.469   0.0173734
    0.4695  0.00582347
      0.47  -0.00644736
    0.4705  -0.0188797
     0.471  -0.0309055
    0.4715  -0.0419758
     0.472  -0.0515878
    0.4725  -0.0593095
     0.473  -0.0648008
    0.4735  -0.0678303
     0.474  -0.0682858
    0.4745  -0.0661803
     0.475    -0.06165
    0.4755  -0.0549477
     0.476  -0.0464294
    0.4765   -0.036536
     0.477  -0.0257712
    0.4775  -0.0146756
     0.478  -0.00379948
    0.4785  0.00632478
     0.479   0.0152097
    0.4795   0.0224371
      0.48   0.0276792
    0.4805   0.0307146
     0.481   0.0314396
    0.4815   0.0298726
     0.482   0.0261534
    0.4825   0.0205353
     0.483   0.0133722
    0.4835  0.00509972
     0.484  -0.00378673
    0.4845  -0.0127581
     0.485  -0.0212788
    0.4855  -0.0288347
     0.486  -0.0349598
    0.4865  -0.0392605
     0.487   -0.041437
    0.4875  -0.0412987
     0.488  -0.0387753
    0.4885  -0.0339215
     0.489  -0.0269149
    0.4895  -0.0180486
      0.49  -0.0077169
    0.4905  0.00360328
     0.491   0.0153759
    0.4915   0.0270318
     0.492   0.0379975
    0.4925   0.0477229
     0.493   0.0557096
    0.4935   0.0615357
     0.494   0.0648773
    0.4945   0.0655254
     0.495    0.063397
    0.4955   0.0585403
     0.496   0.0511331
    0.4965    0.041475
     0.497   0.0299736
    0.4975   0.0171257
     0.498  0.00349288
    0.4985  -0.0103245
     0.499  -0.0237166
    0.4995  -0.0360936
       0.5  -0.0469138
    0.5005  -0.0557098
     0.501  -0.0621116
    0.5015  -0.0658638
     0.502  -0.0668378
    0.5025  -0.0650386
     0.503  -0.0606032
    0.5035  -0.0537944
     0.504  -0.0449871
    0.5045  -0.0346497
     0.505   -0.023321
    0.5055  -0.0115829
     0.506  -3.19691e-05
    0.5065   0.0107506
     0.507   0.0202274
    0.5075   0.0279322
     0.508   0.0334926
    0.5085   0.0366483
     0.509   0.0372651
    0.5095   0.0353402
      0.51   0.0310035
    0.5105   0.0245105
     0.511   0.0162293
    0.5115  0.00662275
     0.512  -0.00377522
    0.5125  -0.0143864
     0.513  -0.0246173
    0.5135  -0.0338895
     0.514  -0.0416688
    0.5145  -0.0474924
     0.515  -0.0509934
    0.5155  -0.0519193
     0.516  -0.0501465
    0.5165  -0.0456866
     0.517   -0.038688
    0.5175  -0.0294291
     0.518  -0.0183065
    0.5185  -0.00581548
     0.519  0.00747237
    0.5195   0.0209372
      0.52   0.0339407
    0.5205   0.0458565
     0.521   0.0561016
    0.5215   0.0641642
     0.522   0.0696298
    0.5225   0.0722009
     0.523   0.0717132
    0.5235   0.0681439
     0.524   0.0616135
    0.5245   0.0523811
     0.525   0.0408329
    0.5255    0.027464
     0.526   0.0128557
    0.5265   -0.002352
     0.527  -0.0174909
    0.5275  -0.0318956
     0.528  -0.0449355
    0.5285  -0.0560447
     0.529  -0.0647485
    0.5295  -0.0706861
      0.53  -0.0736276
    0.5305  -0.0734846
     0.531  -0.0703138
    0.5315  -0.0643143
     0.532  -0.0558173
    0.5325  -0.0452696
     0.533  -0.0332121
    0.5335  -0.0202524
     0.534  -0.00703598
    0.5345  0.00578576
     0.535   0.0175873
    0.5355   0.0277994
     0.536   0.0359368
    0.5365   0.0416218
     0.537   0.0446026
    0.5375   0.0447653
     0.538   0.0421394
    0.5385   0.0368963
     0.539     0.02934
    0.5395   0.0198928
      0.54  0.00907373
    0.5405  -0.00252707
     0.541  -0.0142775
    0.5415   -0.025535
     0.542  -0.0356785
    0.5425  -0.0441394
     0.543  -0.0504302
    0.5435  -0.0541689
     0.544  -0.0550984
    0.5445  -0.0531007
     0.545  -0.0482023
    0.5455  -0.0405755
     0.546  -0.0305293
    0.5465  -0.0184969
     0.547  -0.0050141
    0.5475  0.00930501
     0.548   0.0237976
    0.5485   0.0377835
     0.549   0.0505982
    0.5495   0.0616241
      0.55   0.0703212
    0.5505   0.0762525
     0.551   0.0791055
    0.5515   0.0787081
     0.552   0.0750368
    0.5525   0.0682187
     0.553   0.0585258
    0.5535   0.0463629
     0.554   0.0322488
    0.5545   0.0167917
     0.555  0.00066145
    0.5555  -0.0154422
     0.556  -0.0308224
    0.5565  -0.0448175
     0.557  -0.0568324
    0.5575  -0.0663658
     0.558  -0.0730338
    0.5585  -0.0765873
     0.559  -0.0769228
    0.5595  -0.0740875
      0.56  -0.0682751
    0.5605  -0.0598167
     0.561  -0.0491639
    0.5615  -0.0368664
     0.562  -0.0235456
    0.5625  -0.00986388
     0.563  0.00350704
    0.5635   0.0159187
     0.564   0.0267771
    0.5645    0.035571
     0.565   0.0418964
    0.5655   0.0454753
     0.566    0.046169
    0.5665   0.0439841
     0.567   0.0390713
    0.5675   0.0317178
     0.568   0.0223327
    0.5685   0.0114265
     0.569  -0.000414405
    0.5695  -0.0125563
      0.57  -0.0243497
    0.5705  -0.0351614
     0.571  -0.0444054
    0.5715  -0.0515718
     0.572  -0.0562524
    0.5725  -0.0581605
     0.573  -0.0571455
    0.5735  -0.0532006
     0.574  -0.0464639
    0.5745  -0.0372117
     0.575  -0.0258464
    0.5755  -0.0128772
     0.576  0.00110415
    0.5765    0.015451
     0.577   0.0294928
    0.5775   0.0425668
     0.578   0.0540498
    0.5785   0.0633879
     0.579   0.0701225
    0.5795   0.0739127
      0.58   0.0745514
    0.5805   0.0719753
     0.581    0.066268
    0.5815   0.0576564
     0.582   0.0464998
    0.5825   0.0332735
     0.583   0.0185463
    0.5835  0.00295408
     0.584  -0.0128301
    0.5845  -0.0281271
     0.585  -0.0422836
    0.5855  -0.0547019
     0.586  -0.0648678
    0.5865  -0.0723738
     0.587  -0.0769373
    0.5875  -0.0784134
     0.588  -0.0767999
    0.5885  -0.0722371
     0.589  -0.0649992
    0.5895  -0.0554809
      0.59  -0.0441777
    0.5905  -0.0316608
     0.591  -0.0185501
    0.5915  -0.00548427
     0.592  0.00691059
    0.5925     0.01805
     0.593   0.0274192
    0.5935   0.0345971
     0.594   0.0392757
    0.5945   0.0412742
     0.595   0.0405465
    0.5955   0.0371825
     0.596    0.031403
    0.5965   0.0235473
     0.597   0.0140569
    0.5975   0.0034524
     0.598  -0.00769165
    0.5985  -0.0187755
     0.599  -0.0292037
    0.5995  -0.0384139
       0.6  -0.0459045
    0.6005  -0.0512595
     0.601  -0.0541676
    0.6015  -0.0544387
     0.602  -0.0520119
    0.6025  -0.0469592
     0.603  -0.0394822
    0.6035  -0.0299016
     0.604   -0.018643
    0.6045  -0.00621593
     0.605  0.00681048
    0.6055   0.0198343
     0.606   0.0322493
    0.6065   0.0434742
     0.607   0.0529797
    0.6075   0.0603136
     0.608   0.0651221
    0.6085   0.0671665
     0.609   0.0663338
    0.6095   0.0626424
      0.61   0.0562404
    0.6105   0.0473991
     0.611   0.0364995
    0.6115   0.0240144
     0.612   0.0104863
    0.6125  -0.0034981
     0.613  -0.0173355
    0.6135  -0.0304334
     0.614   -0.042238
    0.6145  -0.0522589
     0.615  -0.0600916
    0.6155  -0.0654352
     0.616  -0.0681056
    0.6165  -0.0680426
     0.617  -0.0653113
    0.6175   -0.060098
     0.618  -0.0526994
    0.6185  -0.0435084
     0.619  -0.0329935
    0.6195  -0.0216764
      0.62  -0.0101065
    0.6205  0.00116555
     0.621   0.0116136
    0.6215   0.0207613
     0.622   0.0282035
    0.6225   0.0336253
     0.623   0.0368158
    0.6235   0.0376769
     0.624   0.0362268
    0.6245   0.0325976
     0.625   0.0270279
    0.6255   0.0198496
     0.626   0.0114714
    0.6265  0.00235767
     0.627  -0.00699456
    0.6275  -0.0160802
     0.628  -0.0244106
    0.6285  -0.0315379
     0.629  -0.0370759
    0.6295  -0.0407194
      0.63  -0.0422578
    0.6305   -0.041586
     0.631  -0.0387081
    0.6315  -0.0337374
     0.632  -0.0268908
    0.6325  -0.0184775
     0.633  -0.00888429
    0.6335  0.00144312
     0.634   0.0120217
    0.6345   0.0223541
     0.635   0.0319523
    0.6355   0.0403605
     0.636   0.0471768
    0.6365   0.0520718
     0.637   0.0548039