# This file was created Wed Mar 25 17:05:43 2026
# Created by:
#                   :-) GROMACS - gmx dos, 2025.4-Homebrew (-:
# 
# Executable:   /opt/homebrew/bin/../Cellar/gromacs/2025.4/bin/gmx
# Data prefix:  /opt/homebrew/bin/../Cellar/gromacs/2025.4
# Working dir:  /Users/mackenziehenley/cp2k/D2O_ice/GroMACK
# Command line:
#   gmx dos -f md_dos_fixed.trr -s md_dos_fixed.tpr -dos dos_fixed.xvg
# gmx dos is part of G R O M A C S:
#
# GROup of MAchos and Cynical Suckers
#
@    title "Velocity autocorrelation function"
@    xaxis  label "Time (ps)"
@    yaxis  label "C(t)"
@TYPE xy
         0           1
    0.0005    0.991069
     0.001    0.964674
    0.0015    0.921923
     0.002     0.86461
    0.0025    0.795125
     0.003    0.716347
    0.0035    0.631508
     0.004    0.544044
    0.0045    0.457437
     0.005    0.375051
    0.0055    0.299984
     0.006    0.234921
    0.0065    0.182019
     0.007    0.142805
    0.0075    0.118119
     0.008    0.108075
    0.0085     0.11207
     0.009    0.128817
    0.0095    0.156416
      0.01    0.192452
    0.0105    0.234118
     0.011    0.278354
    0.0115    0.322004
     0.012    0.361965
    0.0125    0.395346
     0.013    0.419607
    0.0135    0.432686
     0.014    0.433095
    0.0145    0.419999
     0.015    0.393252
    0.0155    0.353408
     0.016    0.301692
    0.0165    0.239942
     0.017     0.17052
    0.0175   0.0961988
     0.018   0.0200253
    0.0185   -0.054824
     0.019   -0.125198
    0.0195   -0.188125
      0.02   -0.240955
    0.0205   -0.281489
     0.021   -0.308088
    0.0215   -0.319754
     0.022   -0.316179
    0.0225   -0.297764
     0.023   -0.265604
    0.0235   -0.221435
     0.024   -0.167561
    0.0245   -0.106742
     0.025  -0.0420675
    0.0255   0.0231847
     0.026   0.0857045
    0.0265    0.142302
     0.027    0.190056
    0.0275    0.226452
     0.028    0.249495
    0.0285    0.257806
     0.029    0.250681
    0.0295    0.228129
      0.03    0.190862
    0.0305    0.140268
     0.031   0.0783414
    0.0315  0.00758731
     0.032  -0.0690925
    0.0325   -0.148537
     0.033   -0.227475
    0.0335   -0.302671
     0.034   -0.371083
    0.0345   -0.429994
     0.035   -0.477137
    0.0355   -0.510802
     0.036   -0.529902
    0.0365   -0.534023
     0.037   -0.523436
    0.0375   -0.499073
     0.038   -0.462484
    0.0385   -0.415746
     0.039    -0.36137
    0.0395   -0.302167
      0.04   -0.241115
    0.0405   -0.181214
     0.041   -0.125338
    0.0415  -0.0760994
     0.042  -0.0357237
    0.0425  -0.00594379
     0.043   0.0120808
    0.0435   0.0178166
     0.044   0.0113783
    0.0445  -0.0064806
     0.045  -0.0344075
    0.0455  -0.0705205
     0.046   -0.112503
    0.0465    -0.15772
     0.047   -0.203346
    0.0475    -0.24651
     0.048   -0.284433
    0.0485   -0.314569
     0.049   -0.334728
    0.0495   -0.343188
      0.05    -0.33878
    0.0505    -0.32095
     0.051   -0.289787
    0.0515   -0.246025
     0.052    -0.19101
    0.0525   -0.126643
     0.053  -0.0552914
    0.0535   0.0203198
     0.054   0.0972335
    0.0545    0.172397
     0.055    0.242804
    0.0555    0.305633
     0.056    0.358378
    0.0565    0.398964
     0.057    0.425843
    0.0575    0.438061
     0.058    0.435303
    0.0585    0.417908
     0.059    0.386844
    0.0595    0.343666
      0.06     0.29044
    0.0605    0.229645
     0.061    0.164056
    0.0615   0.0966139
     0.062    0.030292
    0.0625  -0.0320445
     0.063  -0.0877674
    0.0635   -0.134605
     0.064   -0.170741
    0.0645   -0.194895
     0.065   -0.206375
    0.0655     -0.2051
     0.066   -0.191595
    0.0665   -0.166957
     0.067   -0.132797
    0.0675  -0.0911529
     0.068   -0.044384
    0.0685  0.00494455
     0.069   0.0541908
    0.0695    0.100766
      0.07    0.142259
    0.0705    0.176557
     0.071     0.20194
    0.0715    0.217168
     0.072    0.221534
    0.0725      0.2149
     0.073    0.197692
    0.0735    0.170883
     0.074    0.135937
    0.0745   0.0947398
     0.075   0.0494963
    0.0755  0.00262702
     0.076  -0.0433551
    0.0765  -0.0859683
     0.077   -0.122884
    0.0775   -0.152042
     0.078   -0.171751
    0.0785   -0.180774
     0.079   -0.178385
    0.0795   -0.164411
      0.08   -0.139239
    0.0805   -0.103797
     0.081  -0.0595164
    0.0815  -0.0082597
     0.082   0.0477629
    0.0825    0.106099
     0.083    0.164168
    0.0835    0.219382
     0.084    0.269266
    0.0845    0.311574
     0.085    0.344391
    0.0855    0.366221
     0.086    0.376056
    0.0865     0.37342
     0.087    0.358386
    0.0875    0.331573
     0.088    0.294112
    0.0885     0.24759
     0.089    0.193974
    0.0895    0.135519
      0.09   0.0746601
    0.0905   0.0138979
     0.091  -0.0443146
    0.0915  -0.0976856
     0.092   -0.144187
    0.0925   -0.182145
     0.093   -0.210312
    0.0935   -0.227916
     0.094    -0.23469
    0.0945   -0.230874
     0.095   -0.217198
    0.0955   -0.194834
     0.096   -0.165334
    0.0965   -0.130548
     0.097  -0.0925287
    0.0975  -0.0534309
     0.098  -0.0154014
    0.0985   0.0195243
     0.099   0.0495202
    0.0995   0.0730574
       0.1   0.0889754
    0.1005   0.0965339
     0.101   0.0954451
    0.1015   0.0858819
     0.102   0.0684654
    0.1025   0.0442278
     0.103   0.0145583
    0.1035  -0.0188705
     0.104  -0.0541876
    0.1045  -0.0894197
     0.105   -0.122589
    0.1055   -0.151815
     0.106   -0.175403
    0.1065   -0.191935
     0.107   -0.200336
    0.1075   -0.199925
     0.108   -0.190454
    0.1085   -0.172117
     0.109   -0.145542
    0.1095   -0.111761
      0.11  -0.0721637
    0.1105  -0.0284259
     0.111    0.017565
    0.1115   0.0638013
     0.112    0.108249
    0.1125    0.148945
     0.113    0.184084
    0.1135    0.212107
     0.114    0.231771
    0.1145    0.242202
     0.115    0.242936
    0.1155    0.233938
     0.116    0.215599
    0.1165    0.188714
     0.117    0.154441
    0.1175    0.114247
     0.118   0.0698332
    0.1185   0.0230573
     0.119  -0.0241556
    0.1195  -0.0699017
      0.12   -0.112385
    0.1205       -0.15
     0.121   -0.181398
    0.1215   -0.205549
     0.122   -0.221778
    0.1225   -0.229792
     0.123   -0.229685
    0.1235   -0.221921
     0.124   -0.207306
    0.1245   -0.186938
     0.125    -0.16215
    0.1255   -0.134437
     0.126    -0.10538
    0.1265  -0.0765624
     0.127  -0.0494975
    0.1275  -0.0255491
     0.128  -0.00586853
    0.1285  0.00865933
     0.129   0.0174559
    0.1295   0.0202725
      0.13   0.0171975
    0.1305  0.00864608
     0.131  -0.0046659
    0.1315  -0.0217627
     0.132  -0.0414623
    0.1325  -0.0624401
     0.133  -0.0832977
    0.1335   -0.102637
     0.134    -0.11913
    0.1345   -0.131591
     0.135   -0.139033
    0.1355   -0.140719
     0.136     -0.1362
    0.1365   -0.125336
     0.137   -0.108308
    0.1375  -0.0856027
     0.138  -0.0579945
    0.1385  -0.0265057
     0.139  0.00764224
    0.1395   0.0430873
      0.14   0.0783921
    0.1405    0.112112
     0.141    0.142863
    0.1415    0.169387
     0.142    0.190609
    0.1425    0.205687
     0.143    0.214049
    0.1435    0.215414
     0.144    0.209808
    0.1445    0.197552
     0.145    0.179249
    0.1455    0.155747
     0.146    0.128103
    0.1465   0.0975206
     0.147   0.0653018
    0.1475   0.0327784
     0.148  0.00125236
    0.1485  -0.0280644
     0.149  -0.0541041
    0.1495  -0.0759887
      0.15  -0.0930661
    0.1505   -0.104934
     0.151    -0.11145
    0.1515   -0.112733
     0.152   -0.109146
    0.1525   -0.101269
     0.153  -0.0898671
    0.1535  -0.0758407
     0.154   -0.060178
    0.1545  -0.0439009
     0.155  -0.0280106
    0.1555  -0.0134354
     0.156  -0.000984818
    0.1565  0.00869101
     0.157   0.0151314
    0.1575   0.0180858
     0.158   0.0175223
    0.1585   0.0136247
     0.159  0.00677909
    0.1595  -0.00245137
      0.16   -0.013359
    0.1605  -0.0251329
     0.161  -0.0369041
    0.1615  -0.0477934
     0.162  -0.0569602
    0.1625  -0.0636473
     0.163  -0.0672224
    0.1635  -0.0672122
     0.164  -0.0633277
    0.1645  -0.0554801
     0.165  -0.0437868
    0.1655  -0.0285656
     0.166  -0.0103199
    0.1665   0.0102866
     0.167   0.0324619
    0.1675   0.0553257
     0.168   0.0779518
    0.1685   0.0994138
     0.169     0.11883
    0.1695    0.135405
      0.17     0.14847
    0.1705    0.157509
     0.171    0.162186
    0.1715    0.162359
     0.172    0.158081
    0.1725    0.149597
     0.173    0.137329
    0.1735     0.12185
     0.174    0.103858
    0.1745   0.0841364
     0.175    0.063515
    0.1755   0.0428297
     0.176   0.0228809
    0.1765  0.00439658
     0.177  -0.0120019
    0.1775  -0.0258264
     0.178  -0.0367414
    0.1785   -0.044576
     0.179  -0.0493255
    0.1795  -0.0511453
      0.18  -0.0503361
    0.1805  -0.0473221
     0.181  -0.0426222
    0.1815  -0.0368176
     0.182  -0.0305169
    0.1825  -0.0243191
     0.183  -0.0187791
    0.1835  -0.0143763
     0.184  -0.0114867
    0.1845  -0.0103631
     0.185  -0.0111204
    0.1855   -0.013731
     0.186  -0.0180268
    0.1865  -0.0237096
     0.187  -0.0303694
    0.1875  -0.0375087
     0.188  -0.0445711
    0.1885  -0.0509747
     0.189  -0.0561458
    0.1895  -0.0595534
      0.19  -0.0607406
    0.1905  -0.0593525
     0.191  -0.0551594
    0.1915  -0.0480723
     0.192  -0.0381514
    0.1925   -0.025607
     0.193  -0.0107915
    0.1935  0.00581527
     0.194   0.0236285
    0.1945   0.0419861
     0.195   0.0601807
    0.1955   0.0774944
     0.196   0.0932344
    0.1965    0.106767
     0.197     0.11755
    0.1975    0.125159
     0.198    0.129307
    0.1985    0.129864
     0.199    0.126855
    0.1995    0.120464
       0.2    0.111023
    0.2005    0.098992
     0.201   0.0849379
    0.2015   0.0695031
     0.202   0.0533727
    0.2025   0.0372396
     0.203   0.0217687
    0.2035  0.00756319
     0.204  -0.00486593
    0.2045   -0.015125
     0.205  -0.0229565
    0.2055  -0.0282505
     0.206  -0.0310483
    0.2065  -0.0315377
     0.207  -0.0300399
    0.2075  -0.0269898
     0.208  -0.0229096
    0.2085  -0.0183781
     0.209  -0.0139961
    0.2095  -0.0103508
      0.21  -0.00798102
    0.2105  -0.00734439
     0.211  -0.00878913
    0.2115  -0.0125316
     0.212  -0.0186404
    0.2125  -0.0270297
     0.213  -0.0374591
    0.2135  -0.0495437
     0.214  -0.0627721
    0.2145  -0.0765299
     0.215  -0.0901316
    0.2155   -0.102856
     0.216   -0.113982
    0.2165   -0.122831
     0.217   -0.128803
    0.2175   -0.131408
     0.218   -0.130298
    0.2185   -0.125289
     0.219   -0.116374
    0.2195   -0.103731
      0.22  -0.0877158
    0.2205  -0.0688525
     0.221  -0.0478099
    0.2215  -0.0253732
     0.222  -0.00240834
    0.2225   0.0201781
     0.223   0.0414815
    0.2235   0.0606422
     0.224   0.0768873
    0.2245    0.089568
     0.225   0.0981917
    0.2255    0.102446
     0.226    0.102217
    0.2265   0.0975912
     0.227   0.0888555
    0.2275   0.0764825
     0.228   0.0611075
    0.2285   0.0434975
     0.229   0.0245138
    0.2295   0.0050692
      0.23  -0.0139174
    0.2305  -0.0315666
     0.231  -0.0470824
    0.2315  -0.0597923
     0.232  -0.0691809
    0.2325  -0.0749163
     0.233  -0.0768662
    0.2335  -0.0751049
     0.234  -0.0699091
    0.2345  -0.0617442
     0.235  -0.0512393
    0.2355   -0.039155
     0.236  -0.0263437
    0.2365  -0.0137045
     0.237  -0.00213589
    0.2375  0.00751236
     0.238   0.0144853
    0.2385   0.0181644
     0.239   0.0181026
    0.2395   0.0140509
      0.24  0.00597538
    0.2405  -0.00593675
     0.241  -0.0212824
    0.2415   -0.039459
     0.242  -0.0596908
    0.2425  -0.0810651
     0.243   -0.102575
    0.2435    -0.12317
     0.244   -0.141805
    0.2445   -0.157494
     0.245   -0.169362
    0.2455   -0.176687
     0.246   -0.178942
    0.2465   -0.175821
     0.247   -0.167263
    0.2475   -0.153454
     0.248   -0.134828
    0.2485   -0.112045
     0.249  -0.0859673
    0.2495  -0.0576198
      0.25  -0.0281437
    0.2505  0.00125574
     0.251   0.0293649
    0.2515   0.0550189
     0.252   0.0771569
    0.2525   0.0948723
     0.253    0.107457
    0.2535    0.114433
     0.254    0.115581
    0.2545    0.110946
     0.255    0.100839
    0.2555   0.0858214
     0.256   0.0666778
    0.2565   0.0443802
     0.257     0.02004
    0.2575  -0.00514546
     0.258  -0.0299506
    0.2585  -0.0531813
     0.259  -0.0737333
    0.2595  -0.0906455
      0.26   -0.103148
    0.2605   -0.110698
     0.261   -0.113009
    0.2615   -0.110064
     0.262   -0.102114
    0.2625  -0.0896697
     0.263  -0.0734734
    0.2635  -0.0544627
     0.264  -0.0337236
    0.2645  -0.0124367
     0.265  0.00818313
    0.2655   0.0269475
     0.266   0.0427556
    0.2665   0.0546503
     0.267   0.0618685
    0.2675   0.0638813
     0.268   0.0604236
    0.2685   0.0515103
     0.269   0.0374391
    0.2695    0.018779
      0.27  -0.00365432
    0.2705  -0.0288359
     0.271  -0.0555792
    0.2715  -0.0825929
     0.272   -0.108542
    0.2725   -0.132114
     0.273   -0.152081
    0.2735   -0.167363
     0.274   -0.177081
    0.2745   -0.180601
     0.275   -0.177569
    0.2755   -0.167931
     0.276   -0.151938
    0.2765   -0.130138
     0.277   -0.103354
    0.2775  -0.0726471
     0.278  -0.0392673
    0.2785  -0.00459796
     0.279    0.029909
    0.2795   0.0628007
      0.28   0.0926911
    0.2805    0.118326
     0.281    0.138644
    0.2815    0.152823
     0.282    0.160323
    0.2825    0.160909
     0.283    0.154663
    0.2835     0.14198
     0.284     0.12355
    0.2845    0.100323
     0.285    0.073462
    0.2855   0.0442924
     0.286   0.0142329
    0.2865  -0.0152707
     0.287   -0.042815
    0.2875  -0.0671072
     0.288   -0.087027
    0.2885   -0.101681
     0.289   -0.110444
    0.2895   -0.112992
      0.29   -0.109315
    0.2905  -0.0997154
     0.291  -0.0847978
    0.2915  -0.0654341
     0.292  -0.0427224
    0.2925  -0.0179321
     0.293  0.00755908
    0.2935    0.032333
     0.294   0.0550024
    0.2945   0.0742792
     0.295   0.0890397
    0.2955   0.0983814
     0.296    0.101668
    0.2965    0.098565
     0.297   0.0890549
    0.2975   0.0734434
     0.298   0.0523453
    0.2985   0.0266574
     0.299  -0.00248385
    0.2995  -0.0337549
       0.3  -0.0657088
    0.3005   -0.096844
     0.301   -0.125676
    0.3015   -0.150811
     0.302   -0.171012
    0.3025   -0.185258
     0.303   -0.192798
    0.3035   -0.193187
     0.304   -0.186308
    0.3045    -0.17238
     0.305   -0.151952
    0.3055   -0.125876
     0.306   -0.095269
    0.3065  -0.0614609
     0.307   -0.025934
    0.3075   0.0097474
     0.308   0.0440101
    0.3085   0.0753456
     0.309    0.102381
    0.3095    0.123945
      0.31    0.139119
    0.3105    0.147284
     0.311    0.148147
    0.3115    0.141756
     0.312    0.128494
    0.3125    0.109062
     0.313   0.0844425
    0.3135   0.0558556
     0.314   0.0246954
    0.3145  -0.00753478
     0.315  -0.0392954
    0.3155  -0.0690849
     0.316  -0.0955115
    0.3165    -0.11736
     0.317    -0.13365
    0.3175   -0.143682
     0.318    -0.14707
    0.3185   -0.143759
     0.319   -0.134029
    0.3195   -0.118475
      0.32  -0.0979824
    0.3205  -0.0736796
     0.321  -0.0468827
    0.3215  -0.0190308
     0.322   0.0083853
    0.3225   0.0338964
     0.323   0.0561275
    0.3235   0.0738658
     0.324   0.0861204
    0.3245   0.0921718
     0.325   0.0916079
    0.3255   0.0843451
     0.326   0.0706336
    0.3265   0.0510462
     0.327   0.0264517
    0.3275  -0.00202617
     0.328  -0.0330623
    0.3285  -0.0651937
     0.329  -0.0968895
    0.3295   -0.126625
      0.33   -0.152954
    0.3305   -0.174579
     0.331   -0.190417
    0.3315   -0.199645
     0.332   -0.201748
    0.3325   -0.196539
     0.333    -0.18417
    0.3335   -0.165128
     0.334   -0.140209
    0.3345   -0.110482
     0.335  -0.0772413
    0.3355  -0.0419408
     0.336  -0.00612915
    0.3365   0.0286252
     0.337   0.0608069
    0.3375   0.0890256
     0.338    0.112081
    0.3385    0.129018
     0.339    0.139171
    0.3395    0.142197
      0.34    0.138086
    0.3405    0.127163
     0.341    0.110067
    0.3415   0.0877243
     0.342   0.0612979
    0.3425   0.0321328
     0.343   0.0016896
    0.3435  -0.0285259
     0.344  -0.0570355
    0.3445  -0.0824597
     0.345   -0.103584
    0.3455   -0.119415
     0.346    -0.12923
    0.3465   -0.132609
     0.347   -0.129452
    0.3475   -0.119986
     0.348   -0.104748
    0.3485  -0.0845594
     0.349  -0.0604853
    0.3495  -0.0337794
      0.35  -0.0058232
    0.3505   0.0219431
     0.351    0.048091
    0.3515   0.0712742
     0.352   0.0902942
    0.3525     0.10416
     0.353    0.112134
    0.3535    0.113773
     0.354    0.108945
    0.3545   0.0978359
     0.355   0.0809455
    0.3555   0.0590579
     0.356   0.0332067
    0.3565  0.00462348
     0.357  -0.0253208
    0.3575  -0.0551826
     0.358  -0.0835149
    0.3585   -0.108938
     0.359   -0.130204
    0.3595   -0.146259
      0.36   -0.156292
    0.3605   -0.159777
     0.361   -0.156491
    0.3615   -0.146534
     0.362   -0.130316
    0.3625   -0.108542
     0.363  -0.0821742
    0.3635   -0.052391
     0.364  -0.0205258
    0.3645   0.0119943
     0.365   0.0437167
    0.3655   0.0732322
     0.366   0.0992416
    0.3665    0.120617
     0.367    0.136452
    0.3675    0.146107
     0.368    0.149235
    0.3685    0.145798
     0.369    0.136064
    0.3695    0.120594
      0.37    0.100214
    0.3705   0.0759675
     0.371   0.0490715
    0.3715   0.0208513
     0.372  -0.00732322
    0.3725  -0.0341033
     0.373  -0.0582271
    0.3735  -0.0785799
     0.374   -0.094247
    0.3745   -0.104557
     0.375   -0.109111
    0.3755   -0.107804
     0.376   -0.100822
    0.3765  -0.0886349
     0.377  -0.0719711
    0.3775  -0.0517782
     0.378  -0.0291759
    0.3785  -0.00540019
     0.379   0.0182591
    0.3795   0.0405217
      0.38   0.0601805
    0.3805   0.0761607
     0.381   0.0875724
    0.3815   0.0937547
     0.382   0.0943066
    0.3825   0.0891075
     0.383   0.0783219
    0.3835   0.0623913
     0.384   0.0420123
    0.3845   0.0181023
     0.385  -0.00824527
    0.3855  -0.0358143
     0.386  -0.0633253
    0.3865  -0.0894969
     0.387   -0.113108
    0.3875   -0.133058
     0.388   -0.148415
    0.3885   -0.158467
     0.389   -0.162748
    0.3895   -0.161067
      0.39   -0.153511
    0.3905   -0.140441
     0.391   -0.122474
    0.3915   -0.100455
     0.392  -0.0754106
    0.3925  -0.0485021
     0.393  -0.0209695
    0.3935  0.00592905
     0.394   0.0309772
    0.3945    0.053058
     0.395   0.0712063
    0.3955   0.0846539
     0.396   0.0928647
    0.3965   0.0955579
     0.397   0.0927194
    0.3975   0.0845998
     0.398   0.0716996
    0.3985   0.0547427
     0.399   0.0346388
    0.3995   0.0124374
       0.4  -0.0107248
    0.4005  -0.0336799
     0.401  -0.0552867
    0.4015  -0.0744861
     0.402  -0.0903526
    0.4025   -0.102138
     0.403   -0.109307
    0.4035   -0.111562
     0.404   -0.108856
    0.4045    -0.10139
     0.405  -0.0896065
    0.4055  -0.0741605
     0.406  -0.0558884
    0.4065   -0.035764
     0.407  -0.0148498
    0.4075  0.00575662
     0.408   0.0249775
    0.4085    0.041808
     0.409   0.0553665
    0.4095    0.064937
      0.41   0.0700047
    0.4105   0.0702805
     0.411   0.0657148
    0.4115   0.0564987
     0.412   0.0430547
    0.4125   0.0260143
     0.413  0.00618717
    0.4135  -0.0154796
     0.414  -0.0379479
    0.4145  -0.0601402
     0.415  -0.0809917
    0.4155  -0.0995025
     0.416   -0.114786
    0.4165   -0.126112
     0.417   -0.132941
    0.4175    -0.13495
     0.418   -0.132046
    0.4185   -0.124371
     0.419   -0.112293
    0.4195  -0.0963888
      0.42   -0.077411
    0.4205  -0.0562539
     0.421  -0.0339081
    0.4215  -0.0114122
     0.422   0.0101979
    0.4225   0.0299388
     0.423   0.0469272
    0.4235   0.0604209
     0.424   0.0698544
    0.4245    0.074864
     0.425   0.0753034
    0.4255   0.0712489
     0.426   0.0629933
    0.4265   0.0510287
     0.427   0.0360206
    0.4275    0.018773
     0.428  0.000187441
    0.4285  -0.0187829
     0.429  -0.0371809
    0.4295  -0.0540929
      0.43  -0.0686944
    0.4305  -0.0802893
     0.431  -0.0883442
    0.4315  -0.0925134
     0.432   -0.092654
    0.4325   -0.088832
     0.433  -0.0813167
    0.4335  -0.0705655
     0.434  -0.0571996
    0.4345  -0.0419713
     0.435  -0.0257249
    0.4355  -0.00935382
     0.436   0.0062454
    0.4365   0.0202182
     0.437    0.031795
    0.4375   0.0403305
     0.438    0.045335
    0.4385    0.046499
     0.439    0.043709
    0.4395   0.0370517
      0.44   0.0268104
    0.4405     0.01345
     0.441  -0.0024063
    0.4415  -0.0200083
     0.442  -0.0385162
    0.4425  -0.0570423
     0.443   -0.074695
    0.4435  -0.0906227
     0.444   -0.104056
    0.4445   -0.114344
     0.445   -0.120988
    0.4455   -0.123664
     0.446   -0.122237
    0.4465   -0.116769
     0.447   -0.107513
    0.4475  -0.0949014
     0.448  -0.0795219
    0.4485   -0.062089
     0.449  -0.0434078
    0.4495  -0.0243341
      0.45  -0.00573197
    0.4505   0.0115685
     0.451    0.026812
    0.4515   0.0393541
     0.452   0.0486921
    0.4525   0.0544884
     0.453   0.0565857
    0.4535   0.0550126
     0.454   0.0499807
    0.4545   0.0418718
     0.455   0.0312169
    0.4555   0.0186682
     0.456  0.00496479
    0.4565  -0.00910535
     0.457   -0.022746
    0.4575  -0.0351932
     0.458   -0.045754
    0.4585  -0.0538414
     0.459  -0.0590034
    0.4595  -0.0609455
      0.46  -0.0595449
    0.4605  -0.0548559
     0.461  -0.0471063
    0.4615  -0.0366853
     0.462  -0.0241226
    0.4625  -0.0100611
     0.463  0.00477644
    0.4635   0.0196242
     0.464    0.033713
    0.4645   0.0463094
     0.465   0.0567532
    0.4655    0.064491
     0.466   0.0691043
    0.4665   0.0703313
     0.467   0.0680798
    0.4675    0.062432
     0.468   0.0536412
    0.4685   0.0421184
     0.469   0.0284125
    0.4695   0.0131826
      0.47  -0.00283482
    0.4705  -0.0188625
     0.471  -0.0341212
    0.4715  -0.0478683
     0.472  -0.0594348
    0.4725  -0.0682583
     0.473  -0.0739107
    0.4735  -0.0761192
     0.474  -0.0747797
    0.4745  -0.0699611
     0.475  -0.0619018
    0.4755  -0.0509973
     0.476  -0.0377797
    0.4765  -0.0228914
     0.477  -0.00705224
    0.4775  0.00897597
     0.478   0.0244278
    0.4785   0.0385723
     0.479   0.0507489
    0.4795   0.0604002
      0.48    0.067099
    0.4805   0.0705689
     0.481   0.0706975
    0.4815   0.0675404
     0.482   0.0613183
    0.4825   0.0524039
     0.483   0.0413028
    0.4835    0.028627
     0.484    0.015063
    0.4845  0.00133668
     0.485   -0.011824
    0.4855  -0.0237261
     0.486  -0.0337474
    0.4865  -0.0413677
     0.487  -0.0461953
    0.4875  -0.0479872
     0.488  -0.0466611
    0.4885  -0.0422996
     0.489  -0.0351458
    0.4895  -0.0255912
      0.49  -0.0141553
    0.4905  -0.00145954
     0.491   0.0118046
    0.4915   0.0249105
     0.492   0.0371342
    0.4925   0.0477905
     0.493   0.0562685
    0.4935    0.062063
     0.494   0.0648003
    0.4945   0.0642581
     0.495   0.0603772
    0.4955   0.0532654
     0.496   0.0431926
    0.4965   0.0305787
     0.497   0.0159725
    0.4975  2.57495e-05
     0.498  -0.0165393
    0.4985  -0.0329653
     0.499  -0.0484972
    0.4995  -0.0624192
       0.5  -0.0740908
    0.5005  -0.0829776
     0.501  -0.0886783
    0.5015  -0.0909446
     0.502   -0.089693
    0.5025  -0.0850095
     0.503  -0.0771447
    0.5035  -0.0665021
     0.504  -0.0536171
    0.5045  -0.0391312
     0.505    -0.02376
    0.5055  -0.00825749
     0.506  0.00662096
    0.5065   0.0201562
     0.507   0.0317008
    0.5075   0.0407105
     0.508   0.0467718
    0.5085   0.0496213
     0.509   0.0491588
    0.5095   0.0454517
      0.51    0.038731
    0.5105   0.0293794
     0.511   0.0179116
    0.5115  0.00494792
     0.512  -0.00881704
    0.5125  -0.0226497
     0.513  -0.0358148
    0.5135  -0.0476124
     0.514  -0.0574135
    0.5145  -0.0646921
     0.515  -0.0690519
    0.5155  -0.0702464
     0.516   -0.068192
    0.5165  -0.0629723
     0.517  -0.0548349
    0.5175  -0.0441784
     0.518  -0.0315338
    0.5185  -0.0175376
     0.519  -0.00290024
    0.5195   0.0116291
      0.52   0.0253003
    0.5205   0.0373996
     0.521    0.047286
    0.5215   0.0544231
     0.522   0.0584069
    0.5225   0.0589865
     0.523   0.0560769
    0.5235   0.0497651
     0.524   0.0403057
    0.5245     0.02811
     0.525   0.0137259
    0.5255  -0.00218796
     0.526  -0.0188944
    0.5265  -0.0356127
     0.527  -0.0515576
    0.5275  -0.0659767
     0.528  -0.0781875
    0.5285  -0.0876109
     0.529  -0.0937993
    0.5295  -0.0964589
      0.53  -0.0954634
    0.5305  -0.0908609
     0.531  -0.0828714
    0.5315  -0.0718756
     0.532  -0.0583969
    0.5325  -0.0430752
     0.533   -0.026636
    0.5335  -0.00985447
     0.534  0.00648224
    0.5345   0.0216136
     0.535   0.0348428
    0.5355   0.0455711
     0.536   0.0533265
    0.5365    0.057787
     0.537   0.0587958
    0.5375   0.0563689
     0.538   0.0506936
    0.5385   0.0421191
     0.539   0.0311382
    0.5395   0.0183633
      0.54  0.00449522
    0.5405  -0.00971194
     0.541  -0.0234882
    0.5415  -0.0360864
     0.542  -0.0468194
    0.5425   -0.055095
     0.543  -0.0604447
    0.5435  -0.0625484
     0.544  -0.0612498
    0.5445  -0.0565652
     0.545  -0.0486825
    0.5455  -0.0379531
     0.546  -0.0248741
    0.5465  -0.0100648
     0.547  0.00576413
    0.5475   0.0218452
     0.548   0.0373919
    0.5485   0.0516377
     0.549   0.0638735
    0.5495    0.073483
      0.55   0.0799733
    0.5505   0.0829996
     0.551   0.0823824
    0.5515    0.078117
     0.552   0.0703743
    0.5525   0.0594929
     0.553   0.0459634
    0.5535   0.0304046
     0.554   0.0135342
    0.5545  -0.00386613
     0.555  -0.0209883
    0.5555  -0.0370365
     0.556  -0.0512664
    0.5565  -0.0630201
     0.557  -0.0717589
    0.5575  -0.0770885
     0.558  -0.0787782
    0.5585  -0.0767719
     0.559  -0.0711907
    0.5595  -0.0623262
      0.56  -0.0506269
    0.5605  -0.0366758
     0.561  -0.0211616
    0.5615  -0.0048455
     0.562    0.011476
    0.5625   0.0270102
     0.563    0.041006
    0.5635   0.0527907
     0.564   0.0618026
    0.5645   0.0676179
     0.565   0.0699706
    0.5655   0.0687654
     0.566   0.0640818
    0.5665    0.056169
     0.567   0.0454341
    0.5675   0.0324206
     0.568   0.0177822
    0.5685  0.00224992
     0.569  -0.0134043
    0.5695  -0.0284051
      0.57  -0.0420125
    0.5705  -0.0535584
     0.571  -0.0624787
    0.5715  -0.0683417
     0.572  -0.0708691
    0.5725  -0.0699495
     0.573  -0.0656439
    0.5735  -0.0581827
     0.574  -0.0479542
    0.5745  -0.0354857
     0.575  -0.0214171
    0.5755  -0.0064702
     0.576  0.00858722
    0.5765   0.0229788
     0.577   0.0359583
    0.5775   0.0468452
     0.578    0.055059
    0.5785   0.0601473
     0.579    0.061808
    0.5795   0.0599045
      0.58   0.0544724
    0.5805   0.0457182
     0.581   0.0340094
    0.5815   0.0198567
     0.582   0.0038899
    0.5825  -0.0131727
     0.583  -0.0305587
    0.5835  -0.0474789
     0.584   -0.063165
    0.5845  -0.0769064
     0.585  -0.0880843
    0.5855  -0.0962012
     0.586   -0.100904
    0.5865   -0.102002
     0.587  -0.0994718
    0.5875  -0.0934634
     0.588  -0.0842877
    0.5885   -0.072403
     0.589  -0.0583914
    0.5895  -0.0429315
      0.59  -0.0267639
    0.5905  -0.0106562
     0.591  0.00463487
    0.5915   0.0183994
     0.592   0.0300086
    0.5925   0.0389446
     0.593   0.0448251
    0.5935    0.047421
     0.594   0.0466665
    0.5945   0.0426614
     0.595   0.0356652
    0.5955   0.0260837
     0.596   0.0144479
    0.5965  0.00138762
     0.597  -0.0124002
    0.5975  -0.0261858
     0.598  -0.0392431
    0.5985  -0.0508848
     0.599  -0.0604968
    0.5995  -0.0675676
       0.6  -0.0717136
    0.6005  -0.0726974
     0.601  -0.0704391
    0.6015    -0.06502
     0.602  -0.0566784
    0.6025  -0.0457973
     0.603  -0.0328857
    0.6035  -0.0185532
     0.604  -0.00348031
    0.6045    0.011615
     0.605   0.0260126
    0.6055   0.0390249
     0.606   0.0500306
    0.6065   0.0585046
     0.607   0.0640436
    0.6075   0.0663851
     0.608   0.0654203
    0.6085   0.0611987
     0.609   0.0539256
    0.6095   0.0439518
      0.61   0.0317562
    0.6105   0.0179229
     0.611  0.00311186
    0.6115  -0.0119721
     0.612  -0.0266141
    0.6125  -0.0401229
     0.613  -0.0518646
    0.6135  -0.0612924
     0.614  -0.0679726
    0.6145  -0.0716046
     0.615  -0.0720351
    0.6155  -0.0692638
     0.616  -0.0634433
    0.6165  -0.0548702
     0.617  -0.0439701
    0.6175  -0.0312765
     0.618  -0.0174038
    0.6185  -0.00301752
     0.619   0.0111985
    0.6195   0.0245748
      0.62   0.0364893
    0.6205    0.046396
     0.621    0.053852
    0.6215   0.0585372
     0.622   0.0602692
    0.6225   0.0590112
     0.623   0.0548722
    0.6235    0.048101
     0.624   0.0390724
    0.6245   0.0282682
     0.625   0.0162526
    0.6255  0.00364413
     0.626  -0.00891535
    0.6265   -0.020792
     0.627  -0.0313916
    0.6275  -0.0401879
     0.628  -0.0467484
    0.6285  -0.0507547
     0.629  -0.0520178
    0.6295  -0.0504863
      0.63  -0.0462481
    0.6305  -0.0395257
     0.631  -0.0306638
    0.6315  -0.0201121
     0.632  -0.00840283
    0.6325  0.00387632
     0.633    0.016111
    0.6335   0.0276907
     0.634   0.0380384
    0.6345   0.0466389
     0.635   0.0530638
    0.6355   0.0569918
     0.636   0.0582243
    0.6365   0.0566943
     0.637   0.0524689
    0.6375   0.0457461