 # Version information for this restart file 
 # current date 2026-02-16 22:13:44.029
 # current working dir /Users/mackenziehenley/cp2k/D2O_ice/CP2K
 # Program compiled at                                       2025-01-01 12:26:53
 # Program compiled on                                                          
 # Program compiled for                                                    arm64
 # Source code revision number                                                  
 &GLOBAL
   PRINT_LEVEL LOW
   PROJECT_NAME "Ice_Ih_Small"
   RUN_TYPE GEO_OPT
 &END GLOBAL
 &MOTION
   &GEO_OPT
     OPTIMIZER BFGS
     MAX_ITER 100
     STEP_START_VAL 100
   &END GEO_OPT
 &END MOTION
 &FORCE_EVAL
   METHOD QS
   &DFT
     &SCF
       MAX_SCF 200
       EPS_SCF  1.0000000000000000E-004
       IGNORE_CONVERGENCE_FAILURE T
       &OT T
         MINIMIZER DIIS
         PRECONDITIONER FULL_SINGLE_INVERSE
       &END OT
     &END SCF
     &QS
       EPS_DEFAULT  1.0000000000000000E-010
       METHOD PM6
     &END QS
   &END DFT
   &SUBSYS
     &CELL
       A  9.0359999999999996E+000  0.0000000000000000E+000  0.0000000000000000E+000
       B -4.5179999999999980E+000  7.8254055485961880E+000  0.0000000000000000E+000
       C  0.0000000000000000E+000  0.0000000000000000E+000  1.4712000000000000E+001
       PERIODIC XYZ
       MULTIPLE_UNIT_CELL 1 1 1
     &END CELL
     &COORD
       O -1.5497893489486930E-001  2.6912816154558916E+000  3.3955183245109039E-001
       H  5.7612547272046621E-001  2.4533444783055267E+000 -2.8792610935813440E-001
       H -2.7201733940180867E-001  3.6255736866630648E+000  3.3718877223325248E-002
       O  2.1872704829758272E+000  1.2443075674051356E+000  2.2612796231636239E+000
       H  2.8750929282339586E+000  1.8353091423467494E+000  2.6653190327562379E+000
       H  1.4176260843865147E+000  1.8568339392041240E+000  2.3757838291606235E+000
       O -2.3178108955061397E-001  2.5397766960104828E+000  4.1937769374790568E+000
       H  5.5900381718755066E-001  2.1236805331278426E+000  3.7683628648791294E+000
       H -1.1258657008690579E-001  3.4493477571023590E+000  3.8110399598521578E+000
       O  2.0892413694685699E+000  1.1262417555176021E+000  5.7830101812032986E+000
       H  2.8352996400641963E+000  1.7684674612567006E+000  5.8536247103886838E+000
       H  1.3665103136408860E+000  1.7355865702879969E+000  6.0674336708177261E+000
       O -4.9707469676811680E-002  2.3967024194922049E+000  7.8075998429382150E+000
       H  7.8369689733666026E-001  2.1370968235312140E+000  8.2787940264218403E+000
       H  1.9965911755862559E-001  3.3374607717087494E+000  7.6259785523564414E+000
       O  2.2692783287587512E+000  1.4775403448005462E+000  9.6613371163632316E+000
       H  3.2093902501675586E+000  1.7898494764997932E+000  9.6352665228194851E+000
       H  1.9761055763190696E+000  2.0326674271216674E+000  1.0430499656715790E+001
       O -1.8025358077290196E-001  2.6228861644549561E+000  1.1564909713641768E+001
       H  7.2908522992903924E-001  2.2980297305194930E+000  1.1339753004088887E+001
       H -2.8844426166365542E-002  3.5739050485375587E+000  1.1332176068975459E+001
       O  2.3968986448440281E+000  1.1801445027134971E+000  1.3324853817634031E+001
       H  3.2469830230874903E+000  1.5110844130510332E+000  1.3721315219698401E+001
       H  1.7884497440841132E+000  1.7650221561420378E+000  1.3847356757995835E+001
       O -2.3770172072344531E+000  6.5086691851053695E+000  2.1119092613946880E-001
       H -1.5353009268430697E+000  6.1725786211764930E+000 -1.8972930494099910E-001
       H -2.3916079227536216E+000  7.3881144149340079E+000 -2.5540775707265023E-001
       O  5.0145948785030224E-002  5.0630316941928841E+000  2.6227469955301217E+000
       H  9.4079204447279963E-001  5.4439880123731781E+000  2.8308034997800964E+000
       H -4.8048662972732925E-001  5.6769427439010531E+000  3.1925837191507389E+000
       O -2.6555028158162539E+000  6.6363060062710568E+000  4.0264812943526831E+000
       H -1.8524391269456204E+000  6.3182174317015507E+000  3.5392402865630617E+000
       H -2.5767150515923656E+000  7.5933891037122239E+000  3.7789421990430632E+000
       O  2.5830404642775540E-001  4.9984590646989870E+000  6.2578305071413025E+000
       H  1.0367423394683739E+000  5.5678966057977419E+000  6.4920547265293314E+000
       H -4.2710892156749547E-001  5.5303477683366609E+000  6.7376839915070805E+000
       O -2.4476097038579798E+000  6.6567214183250814E+000  7.6193429722567307E+000
       H -1.6083133224757231E+000  6.3533482808624049E+000  7.1852119159935661E+000
       H -2.4304992266039052E+000  7.5877076463188660E+000  7.2761167713470103E+000
       O  4.1595378292502477E-001  4.9471138983778769E+000  9.6615416918780355E+000
       H  1.2386804440445538E+000  5.4850438265164714E+000  9.7610748505608989E+000
       H -2.0637421859863544E-001  5.5973593123195817E+000  1.0077856119990733E+001
       O -2.3471336151667033E+000  6.5535485095658430E+000  1.0978105796077402E+001
       H -1.5473648411959753E+000  6.1538855742772238E+000  1.0549682036491943E+001
       H -2.3195397416461216E+000  7.4207205148587683E+000  1.0498466475903630E+001
       O  1.8156518522367907E-001  5.0013933053838837E+000  1.3195004614091577E+001
       H  9.3309768228600232E-001  5.5804724186677968E+000  1.3475528959909351E+001
       H -5.5169905903724270E-001  5.5971271185387410E+000  1.3493381554710798E+001
       O  4.3933419578261157E+000  2.4953619057475627E+000  3.3193750899147012E-001
       H  5.2641880229831370E+000  2.1582297858753736E+000  2.5548327444167773E-003
       H  4.4418686325765719E+000  3.3949862993316673E+000 -9.0115396486103963E-002
       O  6.7112685116593589E+000  1.2279245651746462E+000  2.5959093140402900E+000
       H  7.5564396354120342E+000  1.6309682705654267E+000  2.9342852439139055E+000
       H  6.0899433968118561E+000  1.8410726818497003E+000  3.0673280591336551E+000
       O  3.9996823014609659E+000  2.7427381404688993E+000  4.1253070908612992E+000
       H  4.8774279949387083E+000  2.4205080825969345E+000  3.7987327656501897E+000
       H  4.0924016025181222E+000  3.6853660758486009E+000  3.8302849579581966E+000
       O  6.5012615615683149E+000  1.2791704552273251E+000  6.0981281020994604E+000
       H  7.2645695545139075E+000  1.8998563131110715E+000  6.1777042676733833E+000
       H  5.7903109991231503E+000  1.9200294672646476E+000  6.3527725385487672E+000
       O  4.5505964993831247E+000  2.6830197414450843E+000  7.8669782780996762E+000
       H  5.2141805100601779E+000  2.6994342595390295E+000  8.6001029953796113E+000
       H  4.4180820401106322E+000  3.6599999137700765E+000  7.7977549501368530E+000
       O  7.0441018222687601E+000  1.3684093868448988E+000  9.4551605049049083E+000
       H  7.8706587941773165E+000  1.7742557604531961E+000  9.8231846780974266E+000
       H  7.0074515370299801E+000  1.8987570712275414E+000  8.6218953344724891E+000
       O  4.7349017321184110E+000  2.2518106725775873E+000  1.1279082039484500E+001
       H  5.5381091950581940E+000  1.9475526422901057E+000  1.0783824931097397E+001
       H  4.8205557886111405E+000  3.2142952494972232E+000  1.1070939598094448E+001
       O  6.9212751656860894E+000  8.8722301897157374E-001  1.3604805775794150E+001
       H  7.5661221132614358E+000  1.5851921160433551E+000  1.3888731751420909E+001
       H  6.1322536327588226E+000  1.4754188293062998E+000  1.3507175672398143E+001
       O  2.0496310494381862E+000  6.4597855989657473E+000  5.1845316348673187E-001
       H  2.8206032318605265E+000  6.3596390945349057E+000 -9.9968041971905425E-002
       H  1.9768280152081537E+000  7.4456443014047426E+000  4.5924792261456793E-001
       O  4.2334047757771813E+000  5.2408452552103908E+000  2.4591689527471376E+000
       H  4.8593985620853299E+000  5.8993875064329977E+000  2.8586848477222011E+000
       H  3.4442605941275826E+000  5.8329743096631663E+000  2.4032398745161814E+000
       O  1.8391241306502899E+000  6.5784458450621930E+000  4.2421550286853797E+000
       H  2.7851715833091046E+000  6.3550862360368461E+000  4.4457139433612776E+000
       H  2.0036434434011543E+000  7.4858679019002254E+000  3.8742756627779089E+000
       O  4.3717440293151499E+000  5.3828047493713020E+000  6.0676823887716242E+000
       H  5.1947134000863775E+000  5.8774499686413986E+000  6.3132987011232968E+000
       H  4.1014198777010114E+000  5.9566810076923575E+000  5.3030033916103294E+000
       O  2.3077390660124886E+000  6.3653028469745303E+000  7.9527999842079931E+000
       H  3.1030418557114401E+000  6.0761811673819519E+000  7.4356376890626468E+000
       H  2.4675583222910804E+000  7.3377101298755045E+000  7.8924043633889793E+000
       O  4.5655279164246307E+000  4.7812246073167035E+000  9.6733718888817055E+000
       H  5.2447219117870132E+000  5.4649686098022459E+000  9.9107978404788213E+000
       H  3.7768762618929115E+000  5.3671947010224068E+000  9.6865428554308721E+000
       O  2.4242529478181707E+000  6.4055685206899513E+000  1.1613834681220169E+001
       H  3.3084049677540142E+000  6.0449138717308077E+000  1.1867016526338048E+001
       H  2.5815292008701696E+000  7.3349760212477166E+000  1.1905424619775257E+001
       O  4.6258583998787941E+000  5.0143716968895911E+000  1.3462141861511496E+001
       H  5.3922238027198706E+000  5.4890327650834534E+000  1.3886158181896926E+001
       H  3.9058133978443981E+000  5.5100954484641580E+000  1.3932678586547267E+001
     &END COORD
     &TOPOLOGY
       COORD_FILE_NAME ice_d20.xyz
       COORD_FILE_FORMAT XYZ
       NUMBER_OF_ATOMS 96
       MULTIPLE_UNIT_CELL 1 1 1
     &END TOPOLOGY
   &END SUBSYS
 &END FORCE_EVAL
