 # Version information for this restart file 
 # current date 2026-02-16 22:13:37.882
 # current working dir /Users/mackenziehenley/cp2k/D2O_ice/CP2K
 # Program compiled at                                       2025-01-01 12:26:53
 # Program compiled on                                                          
 # Program compiled for                                                    arm64
 # Source code revision number                                                  
 &GLOBAL
   PRINT_LEVEL LOW
   PROJECT_NAME "Ice_Ih_Small"
   RUN_TYPE GEO_OPT
 &END GLOBAL
 &MOTION
   &GEO_OPT
     OPTIMIZER BFGS
     MAX_ITER 100
     STEP_START_VAL 99
   &END GEO_OPT
 &END MOTION
 &FORCE_EVAL
   METHOD QS
   &DFT
     &SCF
       MAX_SCF 200
       EPS_SCF  1.0000000000000000E-004
       IGNORE_CONVERGENCE_FAILURE T
       &OT T
         MINIMIZER DIIS
         PRECONDITIONER FULL_SINGLE_INVERSE
       &END OT
     &END SCF
     &QS
       EPS_DEFAULT  1.0000000000000000E-010
       METHOD PM6
     &END QS
   &END DFT
   &SUBSYS
     &CELL
       A  9.0359999999999996E+000  0.0000000000000000E+000  0.0000000000000000E+000
       B -4.5179999999999980E+000  7.8254055485961880E+000  0.0000000000000000E+000
       C  0.0000000000000000E+000  0.0000000000000000E+000  1.4712000000000000E+001
       PERIODIC XYZ
       MULTIPLE_UNIT_CELL 1 1 1
     &END CELL
     &COORD
       O -1.5180059368809154E-001  2.6889716358227740E+000  3.3159898112514002E-001
       H  5.7901861887041306E-001  2.4524269965193821E+000 -2.9378714260435440E-001
       H -2.6875637472913072E-001  3.6243063546871634E+000  3.0045917183334055E-002
       O  2.1877147244526123E+000  1.2503025584592558E+000  2.2686373767075092E+000
       H  2.8766646163681950E+000  1.8452167587336281E+000  2.6637469408868095E+000
       H  1.4187262797708491E+000  1.8643980856202589E+000  2.3777202793745489E+000
       O -2.3034239953881691E-001  2.5391099322281137E+000  4.1894646678760727E+000
       H  5.6324092316759955E-001  2.1230393765520978E+000  3.7724946916661399E+000
       H -1.0804372061806862E-001  3.4477923691007888E+000  3.8097742867049762E+000
       O  2.0933487022369794E+000  1.1217378641761255E+000  5.7808588906951899E+000
       H  2.8402078082658608E+000  1.7629405231905189E+000  5.8499219520280281E+000
       H  1.3716551568667701E+000  1.7350997906737178E+000  6.0600058936178902E+000
       O -5.4389584840926465E-002  2.3948694436015217E+000  7.8034214805198454E+000
       H  7.8520388077212078E-001  2.1294124767928402E+000  8.2643940786834182E+000
       H  1.9614678892018689E-001  3.3353857734764460E+000  7.6220091750169239E+000
       O  2.2690142666069044E+000  1.4760734197826868E+000  9.6553988202137742E+000
       H  3.2082824732221500E+000  1.7916011967204784E+000  9.6368676460645748E+000
       H  1.9685047314355946E+000  2.0307304269568989E+000  1.0423053939154366E+001
       O -1.8397813864212031E-001  2.6274901730633009E+000  1.1562776497492878E+001
       H  7.2406180224814143E-001  2.3022325230047658E+000  1.1334089919659903E+001
       H -3.3219545911491545E-002  3.5782793993235691E+000  1.1329417368913875E+001
       O  2.4036598917789345E+000  1.1866840640918195E+000  1.3326633125768181E+001
       H  3.2533479637344360E+000  1.5178490605196593E+000  1.3729917305823504E+001
       H  1.7940962223682173E+000  1.7703959047041566E+000  1.3854707043898166E+001
       O -2.3781125131803997E+000  6.5086216033106536E+000  2.1095994398377199E-001
       H -1.5369153510899272E+000  6.1732719156458877E+000 -1.9298302503701739E-001
       H -2.3940637825825157E+000  7.3887243478948790E+000 -2.5552976469434030E-001
       O  5.5403407585764550E-002  5.0608015189990754E+000  2.6201182688842009E+000
       H  9.4447618379574183E-001  5.4451255348805381E+000  2.8302322308697554E+000
       H -4.7892364787568431E-001  5.6739491272252174E+000  3.1873738432510490E+000
       O -2.6543216357873773E+000  6.6326515913836745E+000  4.0267440756236841E+000
       H -1.8494993594007134E+000  6.3135918904901924E+000  3.5433278059430564E+000
       H -2.5718382835151696E+000  7.5900897839839629E+000  3.7811848604176732E+000
       O  2.5867913485697308E-001  5.0016308710540542E+000  6.2494906146526006E+000
       H  1.0361041438958558E+000  5.5741790277444974E+000  6.4788200320725826E+000
       H -4.2690979784805910E-001  5.5336660947367582E+000  6.7288287340252824E+000
       O -2.4495161405047750E+000  6.6521902776178141E+000  7.6170368954019247E+000
       H -1.6078499720043933E+000  6.3501700738792684E+000  7.1871937255112632E+000
       H -2.4310470229559638E+000  7.5838905737366247E+000  7.2758331120858930E+000
       O  4.1258208761018567E-001  4.9463229749956854E+000  9.6582687470080018E+000
       H  1.2333985362476780E+000  5.4875153394120737E+000  9.7564457667277473E+000
       H -2.1096364355043501E-001  5.5931141495052659E+000  1.0078598876552187E+001
       O -2.3466434191508165E+000  6.5523754811652708E+000  1.0981165446827131E+001
       H -1.5465797556568712E+000  6.1544066159308368E+000  1.0554425905722104E+001
       H -2.3156774728612586E+000  7.4230604237039763E+000  1.0512122013479017E+001
       O  1.8379969170873686E-001  5.0008064206240510E+000  1.3199436803821985E+001
       H  9.3354687894609445E-001  5.5829504636414766E+000  1.3478809521487035E+001
       H -5.5121199250425801E-001  5.5920631905820493E+000  1.3502622813869813E+001
       O  4.3852935323245230E+000  2.4938410768636037E+000  3.3153649887740322E-001
       H  5.2561976949809761E+000  2.1570894921198587E+000  2.3340083192461181E-003
       H  4.4362961505329910E+000  3.3962412889910998E+000 -8.3579979061157161E-002
       O  6.7180748386872553E+000  1.2278170068040763E+000  2.5980399248907995E+000
       H  7.5648029646181696E+000  1.6311123391767697E+000  2.9314151905882695E+000
       H  6.0990422525162886E+000  1.8422382737912477E+000  3.0687873058051389E+000
       O  4.0042475625702787E+000  2.7357476494990265E+000  4.1278162136698704E+000
       H  4.8795240538308686E+000  2.4119198083457993E+000  3.7929445635057770E+000
       H  4.1017150706675185E+000  3.6809540797365159E+000  3.8405642015883648E+000
       O  6.5001104820652653E+000  1.2755321001439794E+000  6.1026625048032992E+000
       H  7.2635922111186639E+000  1.8951258691977071E+000  6.1872952888302981E+000
       H  5.7886284548464193E+000  1.9179285940676216E+000  6.3535455536669856E+000
       O  4.5472871127035610E+000  2.6774313274608543E+000  7.8571167423540400E+000
       H  5.2146345800508316E+000  2.6852869299387803E+000  8.5875844695236037E+000
       H  4.4153057248678023E+000  3.6552483834959983E+000  7.8001188624333979E+000
       O  7.0358515436748954E+000  1.3685754695714960E+000  9.4594452309018369E+000
       H  7.8657937192319807E+000  1.7718685931817697E+000  9.8218418357652695E+000
       H  6.9940207462936606E+000  1.9016405734355344E+000  8.6286710919398271E+000
       O  4.7325866178002469E+000  2.2552326246491821E+000  1.1280758230790461E+001
       H  5.5369352377138874E+000  1.9512218891894029E+000  1.0789164885291703E+001
       H  4.8204278694735443E+000  3.2178887101498073E+000  1.1076171453981477E+001
       O  6.9164971379797278E+000  8.9562686294402638E-001  1.3609888184363838E+001
       H  7.5628695821705412E+000  1.5954974827531396E+000  1.3887323139792541E+001
       H  6.1245048063319096E+000  1.4820307386135594E+000  1.3522728071877420E+001
       O  2.0544331306794805E+000  6.4602687389274198E+000  5.1402239929560722E-001
       H  2.8251364416691906E+000  6.3522827191771478E+000 -1.0808938846960826E-001
       H  1.9849435711375476E+000  7.4460280677041037E+000  4.4199675561663326E-001
       O  4.2317984017272074E+000  5.2378665251435690E+000  2.4664520421553227E+000
       H  4.8612913758771432E+000  5.8969418685342507E+000  2.8594371184693643E+000
       H  3.4445234341022011E+000  5.8324810346778451E+000  2.4088117847957231E+000
       O  1.8411373551684826E+000  6.5791976811594441E+000  4.2354845844640101E+000
       H  2.7846096857647984E+000  6.3553658065896270E+000  4.4470534003529396E+000
       H  2.0072399334249313E+000  7.4903791346802162E+000  3.8771672104995178E+000
       O  4.3726868662541065E+000  5.3769295672408726E+000  6.0714634168134776E+000
       H  5.1940730263912540E+000  5.8781639217294597E+000  6.3121910917893915E+000
       H  4.0931593099532959E+000  5.9498016514559584E+000  5.3099635488659063E+000
       O  2.3103232800671596E+000  6.3619374160701545E+000  7.9483146098541972E+000
       H  3.1108585834145077E+000  6.0719679275509462E+000  7.4374602595793284E+000
       H  2.4765250447259115E+000  7.3344248464749748E+000  7.8969074058093396E+000
       O  4.5630765178616768E+000  4.7920845821824098E+000  9.6708258261582873E+000
       H  5.2428557617806986E+000  5.4745555382681399E+000  9.9096129879943007E+000
       H  3.7755756037139854E+000  5.3828561634056280E+000  9.6883213814444762E+000
       O  2.4114641195938380E+000  6.4063660100169635E+000  1.1619319950615743E+001
       H  3.2951984836475128E+000  6.0468504945434480E+000  1.1873212265228020E+001
       H  2.5675364542620911E+000  7.3358401535808735E+000  1.1909431242580773E+001
       O  4.6314852049075563E+000  5.0140535878088235E+000  1.3462351364948354E+001
       H  5.3962618193963534E+000  5.4873798815112176E+000  1.3892567501661993E+001
       H  3.9098871763326293E+000  5.5136200621533620E+000  1.3926633051078461E+001
     &END COORD
     &TOPOLOGY
       COORD_FILE_NAME ice_d20.xyz
       COORD_FILE_FORMAT XYZ
       NUMBER_OF_ATOMS 96
       MULTIPLE_UNIT_CELL 1 1 1
     &END TOPOLOGY
   &END SUBSYS
 &END FORCE_EVAL
