 # Version information for this restart file 
 # current date 2026-02-28 19:56:41.994
 # current working dir /Users/mackenziehenley/cp2k/D2O_ice/CP2K
 # Program compiled at                                       2025-01-01 12:26:53
 # Program compiled on                                                          
 # Program compiled for                                                    arm64
 # Source code revision number                                                  
 &GLOBAL
   PRINT_LEVEL LOW
   PROJECT_NAME "Titan_Ice_D2O_96"
   RUN_TYPE MD
 &END GLOBAL
 &MOTION
   &MD
     ENSEMBLE NVE
     STEPS 500
     TIMESTEP  9.9999999999999989E-001
     STEP_START_VAL 500
     TIME_START_VAL  4.9999999999999591E+002
     ECONS_START_VAL -3.7207160820900185E+002
     TEMPERATURE  9.4000000000000000E+001
     &AVERAGES T
       &RESTART_AVERAGES
         ITIMES_START 1
         AVECPU  5.9605132079999912E+000
         AVEHUGONIOT  0.0000000000000000E+000
         AVETEMP_BARO  0.0000000000000000E+000
         AVEPOT -3.7290427162524895E+002
         AVEKIN  7.0043504692893832E-001
         AVETEMP  1.5521377566517006E+003
         AVEKIN_QM  0.0000000000000000E+000
         AVETEMP_QM  0.0000000000000000E+000
         AVEVOL  7.0202309426947704E+003
         AVECELL_A  1.7075565336754671E+001
         AVECELL_B  1.7075565336754671E+001
         AVECELL_C  2.7801650867013532E+001
         AVEALPHA  9.0000000000000000E+001
         AVEBETA  9.0000000000000000E+001
         AVEGAMMA  1.1999999999999999E+002
         AVE_ECONS -4.3423958754425649E+002
         AVE_PRESS  0.0000000000000000E+000
         AVE_PXX  0.0000000000000000E+000
       &END RESTART_AVERAGES
     &END AVERAGES
   &END MD
   &PRINT
     &TRAJECTORY SILENT
       &EACH
         MD 1
       &END EACH
     &END TRAJECTORY
     &VELOCITIES SILENT
       &EACH
         MD 1
       &END EACH
     &END VELOCITIES
   &END PRINT
 &END MOTION
 &FORCE_EVAL
   METHOD QS
   &DFT
     &SCF
       MAX_SCF 30
       EPS_SCF  1.0000000000000001E-005
       IGNORE_CONVERGENCE_FAILURE T
       &OT T
         MINIMIZER DIIS
         PRECONDITIONER FULL_SINGLE_INVERSE
       &END OT
     &END SCF
     &QS
       EPS_DEFAULT  1.0000000000000000E-010
       METHOD PM6
     &END QS
   &END DFT
   &SUBSYS
     &CELL
       A  9.0359999999999996E+000  0.0000000000000000E+000  0.0000000000000000E+000
       B -4.5179999999999980E+000  7.8254055485961880E+000  0.0000000000000000E+000
       C  0.0000000000000000E+000  0.0000000000000000E+000  1.4712000000000000E+001
       PERIODIC XYZ
       MULTIPLE_UNIT_CELL 1 1 1
     &END CELL
     &COORD
       O  7.1631807499630940E-001  2.8171419102224191E+000  5.7893200334160055E-001
       H  8.7260541280078108E-001  2.7712167562074481E+000  1.4522041941449213E+000
       H  4.1992506785903239E-001  3.7956311040304325E+000  7.0160465496017366E-001
       O  1.8690248245499892E+000  4.4786289719217193E-001  2.7974178752585956E+000
       H  1.6970407188743257E+000  1.1517543239924750E+000  2.2356880479479826E+000
       H  2.7042642854355767E+000  7.8464385291979077E-001  2.9625368261662604E+000
       O  5.0712575973004381E-001  2.7573630846633179E+000  3.8998446333149723E+000
       H  7.1876659766801410E-001  1.9977460564780796E+000  3.9343033952726447E+000
       H  9.5881327520071058E-001  3.0059316716894298E+000  4.5780677249966768E+000
       O  3.1474807694063052E+000  2.5868293046086897E+000  6.4593987690484695E+000
       H  3.2025476773583650E+000  1.6795739107104735E+000  6.0612743510478619E+000
       H  3.9850427269835031E+000  2.7204127093851667E+000  5.9640650770791597E+000
       O  6.2859594088758652E-001  2.3494348322611960E+000  8.0248318646350736E+000
       H  1.4014673694567639E+000  3.0009305324676028E+000  8.2371624166161297E+000
       H  1.4357529941785232E+000  1.7706826177331048E+000  7.9200873306304684E+000
       O  2.5007406335142446E+000  1.5264667899140256E+000  1.0123074575286143E+001
       H  3.0889185434688180E+000  1.1396868501901460E+000  9.4368235281154078E+000
       H  1.9287236925554401E+000  1.3396785250953169E+000  9.5502905872252324E+000
       O  1.0430076617000812E+000  3.2133311198664383E+000  1.1385319335079419E+001
       H  5.2115723414250796E-002  3.2072684733868679E+000  1.1013559323930565E+001
       H  1.3589486308605947E+000  2.3316167395870266E+000  1.2038022150211370E+001
       O  2.5799890080165016E+000  1.3220288339841022E+000  1.3692552463815970E+001
       H  3.1084473775351396E+000  1.7504548041299659E+000  1.2994518308775925E+001
       H  1.9024712825397174E+000  1.6820144305254126E+000  1.3155655962554651E+001
       O -2.1654463047931114E+000  7.4096294164039627E+000  7.4240865649742338E-001
       H -1.7568441642125319E+000  6.6487263683548727E+000 -9.0931368769455179E-002
       H -1.9038808859520555E+000  6.6708001791110165E+000  1.3715128592899055E+000
       O -6.5658788104348387E-001  5.0593324680861649E+000  2.5581101049580668E+000
       H -9.7700719287908702E-002  5.6335987864574131E+000  2.2162291211274026E+000
       H -5.8671649033769102E-001  4.8838973907075900E+000  3.4210559250417085E+000
       O -2.5938086760641803E+000  5.2954038520691080E+000  5.0964670269611734E+000
       H -2.9653715522709532E+000  4.4842593874653227E+000  5.2006309213417206E+000
       H -1.9505291509645719E+000  4.7524519130651539E+000  4.3778524172480084E+000
       O  8.7751811447595741E-003  4.8523215092723344E+000  5.4254211314306673E+000
       H  9.8890723804151526E-001  5.1721358404929765E+000  5.8438183466261329E+000
       H -6.3421716024232777E-001  5.4719180365463584E+000  6.1614662697687592E+000
       O -2.7797999279222312E+000  7.7191578822222517E+000  6.5058037080401920E+000
       H -3.3025920943626734E+000  7.2325527999193726E+000  5.9162375817264818E+000
       H -3.2347440555290752E+000  6.9834584812282765E+000  7.0598476622647475E+000
       O -1.0261636597537964E+000  6.1063689639604428E+000  8.2583857855316705E+000
       H -6.1151779509766813E-001  6.7531560014186534E+000  7.8050516553268823E+000
       H -1.3058294424033396E+000  6.0355224045502860E+000  8.9648612617391450E+000
       O -2.5876957495045834E+000  5.6654552208726638E+000  1.0627095239698029E+001
       H -2.7213813970882272E+000  6.3991766177851250E+000  1.0826237285957262E+001
       H -3.3317749255170344E+000  5.1151258950407712E+000  1.0388225553633717E+001
       O -4.3279017312100015E-001  6.1612442744209810E+000  1.3254115828179762E+001
       H -1.0762722587511537E+000  5.7378200415510801E+000  1.2529493706840329E+001
       H -7.0918235437839949E-001  7.1094097386731381E+000  1.3270714347407115E+001
       O  4.7787399934350043E+000  1.0853675581047242E+000  1.1313418942285562E+000
       H  3.8625416153638543E+000  1.0488636309026558E+000  9.1777409486131911E-001
       H  4.6918734677554594E+000  2.0490554303677615E+000  1.3366694515699757E+000
       O  7.8748351393157057E+000  1.5201279925835129E+000  1.8597555030610586E+000
       H  7.4738074043447478E+000  1.3846732816186140E+000  1.0981141593859463E+000
       H  7.4468208403761942E+000  2.3915847479525429E+000  1.8508166992834196E+000
       O  3.9455611262247441E+000  3.2333444028742329E+000  3.1802130919940854E+000
       H  3.2977579316367533E+000  3.5247320079078803E+000  3.8342155197762344E+000
       H  3.0460028923050562E+000  3.0122961533255412E+000  2.7134048660953107E+000
       O  7.7226628319393642E+000  8.2737153643917005E-001  6.5990086243615558E+000
       H  8.7199876486535519E+000  9.1201606614718733E-001  6.7534705818303200E+000
       H  7.9676653299289582E+000  5.7331961843737178E-001  5.7231085409296973E+000
       O  4.9115269058076274E+000  1.3184056074185158E+000  7.9800712655813397E+000
       H  5.4668024399128861E+000  1.5907157853608438E+000  8.6978163765301506E+000
       H  5.5716814491987980E+000  2.1658335389136010E+000  7.5632617416675201E+000
       O  7.1126259502212541E+000  1.6598929472633006E+000  1.0020142893224170E+001
       H  7.4220177249290122E+000  8.6546249775676198E-001  9.8005147950806464E+000
       H  6.4664684567185322E+000  1.4106492981722953E+000  1.0469958424804108E+001
       O  5.1919945159332510E+000  2.3356880305498455E+000  1.2270813113473936E+001
       H  4.9812886416475779E+000  2.8291806124649197E+000  1.1514131176511940E+001
       H  4.6782782598137791E+000  2.9663932669030495E+000  1.2754810628063176E+001
       O  7.9971474983937387E+000  1.5298646556918374E+000  1.3161341779409495E+001
       H  7.5522952759769257E+000  5.7559585556531423E-001  1.3414607156304671E+001
       H  8.6723333412834407E+000  1.9103996049796335E+000  1.3823707534842697E+001
       O  1.6763912975389643E+000  6.8177889280023996E+000  8.6631737629059191E-001
       H  1.3109947383509251E+000  6.5109735041631529E+000  1.5989112943433392E+000
       H  1.8122938127820867E+000  7.6659238137693375E+000  1.5564524445046946E+000
       O  5.6529035988228600E+000  5.0387969984864212E+000  1.4615301044982185E+000
       H  6.3096933378577154E+000  4.9410960903097667E+000  1.8512737050379688E+000
       H  4.8913337864389588E+000  5.1628191343400873E+000  1.7376268552534968E+000
       O  1.0745250816415870E+000  6.9278551125266254E+000  3.8653504376771752E+000
       H  1.6355473892126089E+000  6.5079186933197875E+000  4.5094317192901556E+000
       H  1.9373718588535467E+000  7.5012925281861387E+000  3.8445158292554109E+000
       O  3.5657656446860706E+000  5.7511299166294902E+000  5.4183483902470009E+000
       H  4.4710035075792804E+000  6.1531016052249408E+000  4.8753917832990750E+000
       H  2.8021184613301742E+000  6.6165286791495976E+000  5.2005693042168595E+000
       O  1.8690246809759612E+000  6.4419087217932303E+000  8.2040421608668339E+000
       H  2.4304325133582960E+000  7.0326986753558254E+000  7.6193129792725713E+000
       H  1.9725486113933588E+000  5.7783688021514354E+000  7.4387846844892875E+000
       O  3.4362643474952446E+000  4.8224407555276523E+000  1.0363056171031205E+001
       H  2.7513461841387934E+000  4.1487696665721110E+000  1.0304130718100039E+001
       H  3.0197897521308343E+000  5.1776265255260236E+000  9.6761113660475448E+000
       O  1.3752061581202253E+000  7.1275392669594408E+000  1.1387292164509313E+001
       H  1.7177938957934920E+000  6.5661381371555914E+000  1.1158688034873965E+001
       H  1.2771207854892563E+000  7.4706031275105680E+000  1.2045210811599715E+001
       O  4.3857425411365654E+000  5.3587043351907448E+000  1.3468548536547278E+001
       H  4.0854588961119402E+000  5.7442700236091460E+000  1.4322682855057023E+001
       H  5.0185213832896238E+000  5.0748728383220643E+000  1.3960790398051632E+001
     &END COORD
     &VELOCITY
         1.8991524230128480E-004  6.7405727469367944E-005  2.8377667358886439E-004
        -1.1941189089685810E-003  1.7782731614575022E-003 -2.9753819326611779E-003
         1.9146550724511951E-003 -1.3483355995626033E-003  1.1406875296649107E-003
         2.5501342499581302E-004  2.2640976681773147E-004  7.3884402409202327E-005
        -1.3230070069065168E-003 -9.8235846011289246E-004 -6.9430985796157347E-004
        -1.0278917629517881E-003 -1.4123025075515932E-003  7.0225054621339967E-004
         4.2391145591166050E-005 -1.0296909375575003E-004  3.3687661872463073E-004
        -8.5985861993260451E-004  1.8375419287410856E-004 -1.7559012603246872E-003
         7.1931289453361943E-004  2.1432967951127589E-003  1.2533506724522712E-003
         5.8217962444354402E-004  3.6640561081654761E-004 -1.6946475017172932E-004
        -8.6126472518964882E-004 -1.4352655344952534E-003 -3.2411841904224337E-004
        -2.1874711696457686E-003  5.7949784605800133E-004  2.2819332630222787E-003
         3.9013694932648848E-004  1.2728634227480428E-004  1.3945338301402793E-004
        -1.8307909041198780E-003 -1.5705585280686542E-003 -8.1399591256332479E-004
         1.5403263694507019E-004  6.0129685576667787E-004  1.2565510606129177E-003
        -2.3008400300840486E-004 -1.1325675095429629E-004 -2.7802113743501182E-004
         2.3779112557113561E-003  4.1578582252489547E-004  7.3586616121863605E-004
        -5.9778992166647279E-004  1.6972971041016901E-003  3.0379155907037931E-003
         4.9785173538880443E-004  1.6862268794195324E-004  2.9534061167697800E-004
        -2.0180533270444069E-003  1.2660891812511850E-004 -4.1274577805512332E-004
        -4.8949368839180702E-004  8.1666431973899097E-004 -3.6842489366415375E-005
         2.8335547085354902E-004  4.8821196219468448E-005 -2.7092763903303746E-005
        -3.6388531065535912E-004 -7.4120962489069859E-004  1.5954954774673148E-003
        -3.3037393330393188E-004 -5.1638340806548424E-005  4.9310687032562634E-004
         1.7404373941298695E-004 -2.2683689582007422E-006  3.3696585278182985E-005
         3.8859547582641829E-005 -2.0068005425233338E-004  1.7857339818668075E-003
         2.9092124809755203E-004  3.2436656908510565E-005 -2.7774158779990902E-003
        -2.2784694565841917E-004 -9.5496072196668113E-005  7.1624622177379770E-005
        -1.8981305453274344E-004  1.6109684812896463E-003 -1.7575366727375329E-003
        -1.5676886687735997E-003 -1.3055661723019826E-003 -5.5855060979985969E-004
        -1.1555730013998472E-004 -4.3985919815100338E-004  1.1571037980283972E-005
         1.7105503089648029E-003  1.5989770378513808E-003 -1.3455630540271401E-003
        -1.9200409804922438E-003 -1.7112937879882432E-003  1.2378399244373536E-003
         5.1210645394060805E-005 -5.2136795219499485E-004 -5.9465513319720384E-004
        -1.8857955388671399E-003  1.1693240924211612E-003  1.9831452842337411E-003
         5.3642845449561338E-004  2.1214899808895222E-003  1.9688110882690279E-003
        -2.5526307671690723E-004 -2.2413071632546323E-004 -4.3148941268796856E-004
         1.8082824809680700E-005  8.5620293456819391E-004  1.4420245532241157E-004
        -2.7774587180260887E-004 -5.8363002758896445E-004  5.8127342281111575E-004
        -2.2225048566365437E-004  3.4046093085372830E-004  1.9164438819032636E-004
         7.6901996890936953E-004 -7.1253076191542220E-004 -8.4153402075402427E-004
         4.7269869944856300E-004 -1.6401490895447974E-003  5.3686368784179703E-004
        -5.2441325407622593E-004 -2.2746462582478384E-004 -2.8999836723128609E-004
         2.9363564519966855E-003  9.7806523898320667E-004  8.0370710811176679E-004
         1.7306753419263818E-003 -3.1101966958418215E-004 -1.0268157808645059E-004
        -3.7066345267295264E-004  1.0142176929251068E-004 -5.3356463628823127E-005
        -2.3557677158860484E-005 -1.7464234190435299E-003 -3.9179918373446337E-004
         1.5454257976975760E-003  1.7673728950874954E-003  1.3750862469471647E-003
        -3.0889895075151012E-004 -3.3411946765756709E-004 -1.1516609603447966E-004
         2.3492936102292236E-003  1.6845311866993523E-003  1.1671302019201941E-003
        -8.4845993120797811E-004 -2.0388517957900124E-003 -1.1484849773601841E-003
        -7.2738170855230375E-005 -1.4040819538150643E-004 -2.1173664017847278E-004
         1.3021222500941414E-004  2.4959860115864271E-003  1.2677972362343615E-003
         5.4950674032945915E-004 -1.7843004752161572E-003 -1.1920766402343322E-003
        -5.1739724917042990E-004  2.6008204607458373E-004  2.0337831972063120E-004
         1.0768890538732660E-003 -2.0699207307397997E-003 -2.5948365885275606E-003
         1.4655632367434651E-003  7.2853662064225992E-004  1.5639736334387515E-003
         4.4012021053734554E-004  6.5953344270147055E-005 -3.6938834073136208E-004
        -2.5376900853324351E-003  9.5809675256012337E-005 -8.3104433513579940E-004
        -1.0278784483588159E-003  1.0405815831732723E-003  2.7533597511190545E-003
         2.2077798780857687E-004 -1.5269697786035954E-004 -1.8331772253578528E-004
        -7.0836197656959094E-004  6.9349857240961978E-004 -1.1944360407228414E-003
        -5.6376147053516994E-004 -2.2959970396931716E-003  1.4289759262235014E-003
         1.4534971849348071E-005 -4.1616645945411780E-004 -5.6087990765089105E-005
         1.9263711893829259E-003  5.9285421920926389E-004 -1.0512972536734879E-003
        -2.0853653354458170E-003  1.9685972302298303E-003  7.9717673787379562E-004
         7.3740464155313328E-005  2.9713446486186662E-004 -1.8331220277691484E-004
         1.3707671920905776E-003 -2.5035830743468544E-003  2.7323780289916129E-004
        -6.8992281074583130E-004 -1.7295937176379791E-005  2.1292298561640592E-003
        -1.1672665372894147E-004 -2.2477312089740089E-004  1.5413551890005331E-004
        -1.1500401692684829E-003  7.0211531075984137E-004 -1.7839690936334524E-003
         2.7385547595843336E-003  3.1202118032112843E-003  6.5156684839080142E-004
        -2.0725218618247626E-004  1.6178379204990196E-004  2.6530364309890507E-004
         9.3268666057724108E-004 -8.8372763290516269E-004 -1.9783453788284845E-003
         4.7602218995444284E-004  1.3036760561366692E-003 -3.6617918061912925E-004
         6.5499250211912272E-004  9.7156797587300028E-005 -1.8193031995129662E-004
        -2.7286083443470309E-003  3.8870246409372113E-004 -1.1906969726008677E-003
         8.4833298779130105E-004 -6.8113921995401647E-005  6.2765197190232111E-004
         1.5223829920633851E-004  3.4334377615053688E-004 -1.1344737230847811E-004
        -8.2350808109346487E-004  5.0532099947764851E-005 -2.9165773702454054E-004
        -1.8854624998751515E-003 -8.1470951878951324E-004 -8.5362689570535669E-005
        -1.2665577550724453E-004  1.4000302260540136E-004 -7.0997649388141742E-005
        -1.6077302549064867E-003  1.1968254101393549E-003 -4.3086422630244118E-004
         3.8585031044227908E-003 -1.6608881534594569E-003  1.2341623662019127E-004
         5.8508489367322716E-005  1.0993322187452394E-004  5.6999973590424251E-005
         1.0983281879299888E-003  4.3995623670639648E-004  3.3812616848596293E-004
        -1.1888437577630658E-003 -1.6914042376154133E-003 -8.0287156504263153E-004
        -3.5393891359823172E-004 -3.7634931071511779E-005 -1.5183532920933494E-004
        -2.6259790749656357E-004 -8.4112549609861040E-004  1.2959213042485326E-003
         6.1803096229998177E-004  5.4399119934608875E-004  1.4690650497342645E-003
        -1.8310481469788802E-004 -4.5535687047524792E-005  1.5224693099526233E-004
         3.8368401683290201E-004  7.7338054223827256E-004 -4.3793451620360152E-004
         7.5808183441460314E-004  1.1578172364000688E-004 -7.1054451839310862E-004
        -1.8858743660712357E-004 -2.4415852954062003E-004  2.8663801224128516E-004
         1.8703973324936069E-003 -2.3513836633358545E-004 -4.1349818111825987E-004
        -1.0829835660844641E-003 -5.7673809881287458E-004 -1.6222904586244555E-004
     &END VELOCITY
     &KIND "H"
       ELEMENT "H"
       MASS  2.0141019999999998E+000
     &END KIND
     &TOPOLOGY
       COORD_FILE_NAME ice_d20relaxed.xyz
       COORD_FILE_FORMAT XYZ
       NUMBER_OF_ATOMS 96
       MULTIPLE_UNIT_CELL 1 1 1
     &END TOPOLOGY
   &END SUBSYS
 &END FORCE_EVAL
