 # Version information for this restart file 
 # current date 2026-02-28 19:54:34.621
 # current working dir /Users/mackenziehenley/cp2k/D2O_ice/CP2K
 # Program compiled at                                       2025-01-01 12:26:53
 # Program compiled on                                                          
 # Program compiled for                                                    arm64
 # Source code revision number                                                  
 &GLOBAL
   PRINT_LEVEL LOW
   PROJECT_NAME "Titan_Ice_D2O_96"
   RUN_TYPE MD
 &END GLOBAL
 &MOTION
   &MD
     ENSEMBLE NVE
     STEPS 500
     TIMESTEP  9.9999999999999989E-001
     STEP_START_VAL 480
     TIME_START_VAL  4.7999999999999676E+002
     ECONS_START_VAL -3.7207160820900185E+002
     TEMPERATURE  9.4000000000000000E+001
     &AVERAGES T
       &RESTART_AVERAGES
         ITIMES_START 1
         AVECPU  5.9435112604165647E+000
         AVEHUGONIOT  0.0000000000000000E+000
         AVETEMP_BARO  0.0000000000000000E+000
         AVEPOT -3.7290323566957767E+002
         AVEKIN  6.9945771886836405E-001
         AVETEMP  1.5499720343765193E+003
         AVEKIN_QM  0.0000000000000000E+000
         AVETEMP_QM  0.0000000000000000E+000
         AVEVOL  7.0202309426947713E+003
         AVECELL_A  1.7075565336754671E+001
         AVECELL_B  1.7075565336754671E+001
         AVECELL_C  2.7801650867013528E+001
         AVEALPHA  9.0000000000000000E+001
         AVEBETA  9.0000000000000000E+001
         AVEGAMMA  1.1999999999999999E+002
         AVE_ECONS -4.3401750374465939E+002
         AVE_PRESS  0.0000000000000000E+000
         AVE_PXX  0.0000000000000000E+000
       &END RESTART_AVERAGES
     &END AVERAGES
   &END MD
   &PRINT
     &TRAJECTORY SILENT
       &EACH
         MD 1
       &END EACH
     &END TRAJECTORY
     &VELOCITIES SILENT
       &EACH
         MD 1
       &END EACH
     &END VELOCITIES
   &END PRINT
 &END MOTION
 &FORCE_EVAL
   METHOD QS
   &DFT
     &SCF
       MAX_SCF 30
       EPS_SCF  1.0000000000000001E-005
       IGNORE_CONVERGENCE_FAILURE T
       &OT T
         MINIMIZER DIIS
         PRECONDITIONER FULL_SINGLE_INVERSE
       &END OT
     &END SCF
     &QS
       EPS_DEFAULT  1.0000000000000000E-010
       METHOD PM6
     &END QS
   &END DFT
   &SUBSYS
     &CELL
       A  9.0359999999999996E+000  0.0000000000000000E+000  0.0000000000000000E+000
       B -4.5179999999999980E+000  7.8254055485961880E+000  0.0000000000000000E+000
       C  0.0000000000000000E+000  0.0000000000000000E+000  1.4712000000000000E+001
       PERIODIC XYZ
       MULTIPLE_UNIT_CELL 1 1 1
     &END CELL
     &COORD
       O  6.7603840813916571E-001  2.8128506604835306E+000  5.3334438524010874E-001
       H  7.6225030807407257E-001  2.6060900864227765E+000  1.6260134011843168E+000
       H -1.3739687468756465E-001  3.5517135654265553E+000  7.4448558834943424E-001
       O  1.8840085490151874E+000  5.1814430251505550E-001  2.7628793011406310E+000
       H  1.5547558159063903E+000  1.2170486529357964E+000  2.3580794928479425E+000
       H  2.8147212195317808E+000  5.9463236905788408E-001  3.0243127079837646E+000
       O  5.4722705625963985E-001  2.6824007561636201E+000  3.8169587557810782E+000
       H  5.2641716908707337E-001  1.8315465617558941E+000  3.8344284909405930E+000
       H  7.5535873364946926E-001  3.0944216308394723E+000  4.4292636349626431E+000
       O  3.0874771834280015E+000  2.4546152504835330E+000  6.4169489755234119E+000
       H  3.1083087220779992E+000  1.6305257214136106E+000  6.2402215944569353E+000
       H  3.8724090592181599E+000  2.9477513120229881E+000  5.8146838590718852E+000
       O  5.9016809840052908E-001  2.3498295763691739E+000  8.0016155412031811E+000
       H  1.4201146954214836E+000  3.0792927403491701E+000  8.2269971077821342E+000
       H  1.1010211366679978E+000  1.7986638385859386E+000  7.4086519943160267E+000
       O  2.5177714832119236E+000  1.4565457746842627E+000  9.9800161765664015E+000
       H  3.2016010921166056E+000  1.1597190466114742E+000  9.8049735868611219E+000
       H  1.7175783171001935E+000  1.3844688588899305E+000  9.7460271896137129E+000
       O  9.5883484144172693E-001  3.1369822055920995E+000  1.1300227789780472E+001
       H  1.5521823726967240E-001  2.9411442667038870E+000  1.1047743175090478E+001
       H  1.2437302565530182E+000  2.1932294307011833E+000  1.1762181138348618E+001
       O  2.5072054193805324E+000  1.3506795423326310E+000  1.3605059809962576E+001
       H  3.2232883299811013E+000  1.6289635875943620E+000  1.2944482219655622E+001
       H  1.7629380874848659E+000  1.5895437558309939E+000  1.3144136268045086E+001
       O -2.2409394989030207E+000  7.4179027564060860E+000  7.4625479921405879E-001
       H -1.8066508018952621E+000  6.7316170319586695E+000 -1.0382433493661118E-001
       H -1.9443055251936887E+000  6.6007798380525857E+000  1.4629849839453326E+000
       O -5.0842021134932203E-001  5.0741198924424138E+000  2.6260151540615913E+000
       H  1.4599780471939292E-001  5.3964962401659964E+000  2.2557842282448815E+000
       H -5.3690008925680754E-001  5.0859919243679625E+000  3.5703930706264466E+000
       O -2.5837259293969850E+000  5.4462215394383087E+000  5.1203188531568360E+000
       H -2.6952554974061238E+000  4.2859360926609282E+000  5.0601633063440659E+000
       H -1.8515439309694903E+000  5.3168046994745763E+000  4.3252352086235319E+000
       O  1.8345395571744644E-003  4.8996330812607569E+000  5.4555790940007771E+000
       H  1.2049371909339162E+000  5.2528229831772251E+000  5.7906215951557733E+000
       H -3.5514500864356069E-001  5.3268609051779849E+000  6.4526931641359049E+000
       O -2.7452903671790208E+000  7.7808807761210605E+000  6.6346714567018692E+000
       H -2.9217111644867768E+000  7.2114367885335531E+000  5.8671835979364220E+000
       H -2.8923982992564343E+000  7.1033907641788492E+000  7.2379913556568667E+000
       O -9.7011204703702958E-001  6.0642548126751992E+000  8.1962284809939057E+000
       H -6.3291212814872511E-001  6.8598771903183851E+000  7.8951238595354232E+000
       H -1.5100292193383147E+000  6.0760334650878036E+000  8.8639417904177389E+000
       O -2.6006123763843179E+000  5.7564875626772434E+000  1.0714795116326489E+001
       H -2.9717373977691257E+000  6.4846696033441154E+000  1.0796004325745006E+001
       H -3.1731084298416290E+000  4.8362737630891397E+000  1.0465947228609778E+001
       O -3.9053855373718360E-001  6.1608474981716936E+000  1.3197776055019361E+001
       H -7.6259597117933031E-001  5.5807526824837046E+000  1.2594315361458687E+001
       H -7.9286428317370372E-001  6.9090482363613512E+000  1.3361331260617693E+001
       O  4.8596976961541642E+000  1.2304067042267537E+000  1.1608712505824985E+000
       H  3.8631329352236170E+000  9.3020950905407029E-001  8.3503681511805106E-001
       H  4.5013621860616206E+000  2.2062645314921157E+000  1.5204158858773280E+000
       O  7.9133138842106385E+000  1.5792414193418285E+000  1.9423510176488450E+000
       H  7.3870730121511583E+000  1.0751983458568959E+000  1.1865099952162721E+000
       H  7.1914907820271630E+000  2.4199134173048567E+000  1.8489408115598831E+000
       O  3.9396606558142206E+000  3.1330450157424181E+000  3.1947934926158106E+000
       H  3.7837995761100967E+000  4.0123832880142452E+000  3.7695143998813880E+000
       H  3.2280160159085742E+000  3.0899472732677027E+000  2.5181152843626751E+000
       O  7.7505651663884318E+000  7.7601500039139115E-001  6.6027573860724358E+000
       H  8.6028814573856600E+000  7.8043353344233324E-001  7.1451376298279650E+000
       H  7.8285134894333259E+000  3.8013536936164483E-001  5.6487500819056500E+000
       O  4.8873994893953299E+000  1.4758113761182599E+000  8.0652796391932746E+000
       H  5.6743062866933043E+000  1.4374036644411130E+000  8.6349623356371055E+000
       H  5.2928323766845375E+000  2.3158503880937955E+000  7.4506572735824568E+000
       O  7.0824811559668692E+000  1.6510889258964208E+000  1.0057537345227770E+001
       H  7.5314329783184668E+000  1.0686167550597132E+000  9.6225734500848308E+000
       H  6.6903585958515803E+000  1.5578098913249274E+000  1.0689984685349703E+001
       O  5.0647799283405242E+000  2.3711432093566769E+000  1.2226447808339254E+001
       H  5.0931278369471045E+000  2.8502404658994775E+000  1.1349894752289256E+001
       H  4.9087786467793233E+000  2.8516276067189801E+000  1.2875281065316100E+001
       O  7.9947077572611676E+000  1.4428369767500446E+000  1.3205486085233831E+001
       H  7.6629598844062112E+000  4.9884854157807218E-001  1.3122655490664878E+001
       H  8.3667491337805195E+000  1.7649789172963750E+000  1.3791814583110369E+001
       O  1.7200575492451868E+000  6.7488857928926009E+000  9.1811435253788187E-001
       H  1.0438560490066568E+000  6.4740100187950462E+000  1.5360235785729186E+000
       H  1.9707394220114374E+000  7.6069065493967818E+000  1.1869398131812645E+000
       O  5.4981461096281503E+000  4.9739564719922180E+000  1.4737441349722187E+000
       H  6.2102155366608116E+000  4.9912512284277071E+000  2.2881115320131418E+000
       H  4.7251033569262502E+000  5.0947564112760926E+000  2.0712528072200205E+000
       O  1.1222999615055753E+000  6.8597095925269373E+000  3.9250450978148317E+000
       H  1.5708488462471595E+000  6.2967527606111551E+000  4.4731360898935684E+000
       H  1.8834135712400490E+000  7.5123097710907167E+000  3.6638032204656286E+000
       O  3.5263109301209647E+000  5.6891620916428778E+000  5.4654461607145537E+000
       H  4.5225883503638569E+000  6.0421116437362121E+000  5.0581332123134146E+000
       H  2.9854485816534262E+000  6.9159772498312950E+000  5.2634377718549503E+000
       O  1.8630457448211231E+000  6.4225175545665083E+000  8.1693162748035419E+000
       H  2.0906449606429063E+000  7.2043104375798617E+000  7.7473799609322622E+000
       H  2.2472749371580241E+000  5.8629251290736351E+000  7.5773693774503066E+000
       O  3.4753629525397640E+000  4.8586603140928455E+000  1.0311452682886191E+001
       H  3.0673215419954523E+000  4.0574585309651949E+000  1.0250133292061687E+001
       H  3.4458980314338752E+000  5.2422367380261967E+000  9.4519576102559597E+000
       O  1.4051026717119095E+000  7.1634820821438661E+000  1.1321062130100533E+001
       H  1.7532105593597340E+000  6.3373252120327042E+000  1.1422207084252889E+001
       H  1.1444567913367771E+000  7.1724736230087434E+000  1.2235115379077104E+001
       O  4.4617998255772084E+000  5.4926168595405382E+000  1.3388722098852652E+001
       H  3.6858049937864514E+000  5.5403832978516840E+000  1.4072234972304035E+001
       H  5.1277453185358075E+000  5.4236050319364590E+000  1.4130991318507073E+001
     &END COORD
     &VELOCITY
         1.3741314041629585E-004 -4.1163183288227334E-005  5.0712165628769500E-004
        -1.2408695509206048E-004  1.0429890553775908E-003 -3.4525489551812845E-003
         1.3148206653703172E-003  2.6254246317697892E-004 -2.1935647234923915E-004
         2.0932868180563346E-004  1.3624847260617292E-004 -5.4441334165928330E-005
        -3.7692242264799990E-004 -1.4726799618236209E-003  2.1591013770079118E-004
        -1.4229485743638278E-003 -8.5737850950313229E-004 -5.3304889627203884E-006
        -1.3708163699899698E-004 -4.3310152757905904E-005  2.6508959635666932E-004
         8.2752233612717278E-004  2.8370301243679581E-003  1.7197054987531807E-004
         4.9716469792772551E-004 -9.1681092359014544E-004 -3.7715843819441852E-004
         5.2323760110557999E-004  2.3897617788415628E-004 -2.4209675015864142E-004
        -1.3992308135514970E-003 -3.0540963547690984E-004  7.7039171079851460E-004
        -1.2525607192950684E-003  3.3537244836241703E-004  1.9059416106504074E-003
         5.9646266591063184E-004  4.1708264790521907E-005 -7.0038751582005015E-005
        -2.1777687762778385E-003 -3.3597041141989110E-004  4.2537186333383668E-004
        -1.2340933165624736E-003 -5.8434872010510971E-004  1.7309843606529369E-003
        -4.6324752120517230E-004  6.4025684040546914E-005  1.5859143977200004E-004
         1.8262571495360107E-003 -1.6382478002356022E-004 -6.4645541792540076E-004
         1.7926955685158784E-003  6.5978736090955138E-004  4.9512892424263919E-004
         5.6890046074628087E-004  6.8408656179293605E-004  1.6580541917762148E-004
        -2.3005485465481283E-003 -1.4501959592539016E-003 -4.5648783001216362E-005
        -5.4149571248078121E-004 -1.5862051545773141E-003  8.8757712140149797E-004
         1.1371967948459366E-004  2.1390811094708693E-004 -3.0400610794478462E-004
        -3.1976287066928685E-004 -6.4845657303560969E-004  2.1038141814615206E-003
         7.0050973655027800E-004 -7.9456083209911935E-004  2.0049949478173281E-003
         2.8828158414311738E-004 -3.7284970559903164E-004  1.9100320196108853E-004
        -7.9318507640052649E-005  4.5173843532867760E-004 -4.2017101903629088E-004
        -7.5689085281859458E-004  2.4359764664321727E-003 -8.3993041597288051E-004
        -4.8508249160589723E-004 -9.7358570253194612E-005 -1.3785139271170170E-004
        -2.8586011063884328E-004  5.6987952257967769E-004  1.5179499356323912E-003
         1.1269732281671682E-003  2.4020940529982123E-004 -1.9476131270607419E-003
         5.4098910499773893E-006 -7.0553739569692044E-004 -1.5448214764422969E-004
        -5.5842447610567655E-004  2.9182419935384657E-003  5.3882748918326732E-004
        -4.2110272986618661E-004 -8.1163382270301712E-004  7.0520240653484587E-004
         1.1261870052089211E-004  4.6320344246860039E-005  4.8571647357908455E-005
         2.5184185493317139E-005 -7.4128174850095251E-004 -1.0884888122856527E-003
        -1.9493410929758482E-003 -1.6635417687619605E-004 -7.4566163018011675E-004
        -2.4195154030043711E-004 -6.4409364166629626E-004 -5.4394548699692531E-004
        -9.6573326970104582E-005  2.5989520540919010E-003  9.7367267131281412E-004
        -2.6738986686104273E-004  1.2888714009102061E-003  7.7271990149023202E-004
        -1.2596546545366863E-004 -3.5373545689057289E-004 -2.9345161241868244E-005
        -1.5150476982621101E-003  3.9626292200735272E-004  2.1223424630736247E-003
         2.0198540349575145E-003  2.8971500245038098E-003 -9.0922729721585368E-004
         9.0607563920411325E-005  3.6257835081789108E-005 -1.5386880114511158E-004
         7.3418542193481721E-004 -2.8164599264970743E-003 -4.3552130339203168E-004
        -1.0516627734166871E-003  1.2445252008769486E-003 -1.1510288311018013E-004
        -1.3640941601925855E-004  1.2648786773337284E-004  2.1276676376691872E-004
        -7.6654422579312495E-004 -6.9260979658871801E-004 -9.4087259598383947E-004
         6.7466284413754212E-004  5.3327672918714714E-004  1.2864283265870115E-005
        -5.7354221199682940E-004 -2.9002166889982974E-004 -1.4082269254011702E-004
         2.5309060975297593E-003  9.9098896361241137E-004  1.0804916804006202E-003
         8.1878441741744807E-004 -1.1675055018234143E-003 -5.3582405880208122E-004
        -3.1762300633515468E-004 -2.1035610621205177E-004 -4.6860421941150905E-004
         1.4764438920657791E-003  2.1375128683586058E-003  1.8528241477767382E-003
         1.1257811666041178E-003 -9.7142470974425927E-004  6.4051290068974632E-005
        -4.8474476220646819E-004  6.3289318760313120E-004 -4.3751979931445662E-005
         5.9903572062632851E-004 -3.4895093229934046E-003 -6.2909737217067851E-004
         2.0177613150208682E-003 -1.2407709123955061E-003  1.0085051549807494E-003
         4.4986116382810177E-004 -1.2005880266104908E-004 -3.2764581192860052E-004
        -1.8429648017583369E-003  1.0025461211117697E-003 -2.8088706485998344E-004
        -1.4665816802696282E-003  1.6108621530858268E-003  2.2941208573852030E-003
         6.7929504980384237E-004 -8.1966121076807781E-005 -8.1381970094692197E-006
        -3.6036529527382574E-003 -8.8121197916605283E-004 -6.0545469738233629E-004
        -1.0547131847268394E-003 -1.3245626988612072E-003 -4.2446860941331853E-004
         8.9619787551639040E-005 -3.2788696188825513E-005  6.5908579757031343E-005
        -7.8805692897385160E-004 -5.3145277660491828E-005  4.7353593344593895E-004
        -4.2602392248866736E-004 -2.4893914867618773E-004 -1.8746069050657561E-003
         3.0307877367747487E-004  2.9535749227246465E-004 -1.0953615912531991E-004
         9.4083379524182345E-005 -2.0873253307075661E-003  1.1798887372424106E-003
        -7.4736247703153461E-004 -9.6671621964016788E-004  5.2887126056675208E-004
        -1.2294611359415581E-004  2.9773393715714003E-004 -4.3091735229772567E-004
        -2.3025506178360241E-004 -4.4397710401877029E-004  8.7154541503651920E-004
         1.4827634817204268E-003  1.9410601047647574E-004  2.3677830393782329E-003
        -5.6204708004649404E-004  7.8641369929459090E-005  3.9957308151383915E-004
         2.3555117503150404E-003 -7.4818097032959335E-004 -2.4025973164867624E-003
         1.2874872834988239E-003  1.3809688450948409E-003 -3.6333153131628182E-004
         5.4642183589301903E-004  1.0463271034351572E-004 -4.2146666946667492E-004
        -3.9803899193057322E-003  2.8901252055559305E-004 -6.5493896018205299E-004
         3.0548671316047381E-003  2.5148359473232788E-004  2.0305989631105594E-003
         5.4514278780662482E-004  8.5416592333352828E-005  1.3262860491102454E-004
        -2.5565089248261157E-003  6.8245731901598781E-004 -8.8378739359011832E-004
        -2.0913282837520257E-003  2.4829142345758230E-005 -4.1452444629308337E-004
        -8.2892717859201544E-005  6.4135002350216818E-005 -7.6310991370141381E-005
         3.6851351783228275E-004  8.5888414554877385E-004 -5.9525298966942746E-004
         6.0600378573867685E-005 -4.9605178028074134E-004 -3.5987132658841533E-004
         1.7218902582998545E-004  1.5158071507741144E-004 -1.9851438314129558E-004
         9.5725481489176284E-005  2.8247850887131733E-004  1.0079516162717999E-003
        -1.2918994260185395E-003 -1.6139202719678860E-003  6.8144292048915754E-004
        -2.3346131638778204E-004 -1.3138237183037290E-004 -3.4095371571946824E-004
        -2.2670762694956527E-004  5.0906844369319958E-004  1.4620559284633829E-003
        -2.9560319613811288E-004 -3.6223494683483923E-005  2.8196182657421066E-003
        -8.7681047700671202E-005  1.7067539502738915E-004 -2.3938392467660107E-004
        -1.7046881419114286E-003  1.8726293994825109E-003  2.8629989326019911E-003
         2.0506434923278074E-003 -2.6445973575680670E-003 -6.6334459488782797E-004
        -5.6052833720695147E-005 -3.0759523600489892E-004  6.2946161846824569E-004
         1.3535340367549801E-003  6.5047892250654133E-004 -6.0148035452194191E-004
        -1.6004565304906938E-003 -9.8574234375094954E-004 -2.8034224091410104E-003
     &END VELOCITY
     &KIND "H"
       ELEMENT "H"
       MASS  2.0141019999999998E+000
     &END KIND
     &TOPOLOGY
       COORD_FILE_NAME ice_d20relaxed.xyz
       COORD_FILE_FORMAT XYZ
       NUMBER_OF_ATOMS 96
       MULTIPLE_UNIT_CELL 1 1 1
     &END TOPOLOGY
   &END SUBSYS
 &END FORCE_EVAL
