 # Version information for this restart file 
 # current date 2026-02-28 21:16:11.124
 # current working dir /Users/mackenziehenley/cp2k/D2O_ice/CP2K
 # Program compiled at                                       2025-01-01 12:26:53
 # Program compiled on                                                          
 # Program compiled for                                                    arm64
 # Source code revision number                                                  
 &GLOBAL
   PRINT_LEVEL LOW
   PROJECT_NAME "Titan_Ice_D2O_Quantum"
   RUN_TYPE MD
 &END GLOBAL
 &MOTION
   &MD
     ENSEMBLE NVE
     STEPS 1000
     TIMESTEP  9.9999999999999989E-001
     STEP_START_VAL 500
     TIME_START_VAL  4.9999999999999591E+002
     ECONS_START_VAL -3.7213938853219747E+002
     TEMPERATURE  9.4000000000000000E+001
     &AVERAGES T
       &RESTART_AVERAGES
         ITIMES_START 1
         AVECPU  7.7754307280001207E+000
         AVEHUGONIOT  0.0000000000000000E+000
         AVETEMP_BARO  0.0000000000000000E+000
         AVEPOT -3.7290233121199259E+002
         AVEKIN  6.9614043666711678E-001
         AVETEMP  1.5426210616109513E+003
         AVEKIN_QM  0.0000000000000000E+000
         AVETEMP_QM  0.0000000000000000E+000
         AVEVOL  7.0202309426947704E+003
         AVECELL_A  1.7075565336754671E+001
         AVECELL_B  1.7075565336754671E+001
         AVECELL_C  2.7801650867013532E+001
         AVEALPHA  9.0000000000000000E+001
         AVEBETA  9.0000000000000000E+001
         AVEGAMMA  1.1999999999999999E+002
         AVE_ECONS -2.1947457679647417E+002
         AVE_PRESS  0.0000000000000000E+000
         AVE_PXX  0.0000000000000000E+000
       &END RESTART_AVERAGES
     &END AVERAGES
   &END MD
   &PRINT
     &TRAJECTORY SILENT
       &EACH
         MD 1
       &END EACH
     &END TRAJECTORY
     &VELOCITIES SILENT
       &EACH
         MD 1
       &END EACH
     &END VELOCITIES
   &END PRINT
 &END MOTION
 &FORCE_EVAL
   METHOD QS
   &DFT
     &SCF
       MAX_SCF 40
       EPS_SCF  1.0000000000000001E-005
       IGNORE_CONVERGENCE_FAILURE T
       &OT T
         MINIMIZER DIIS
         PRECONDITIONER FULL_SINGLE_INVERSE
       &END OT
     &END SCF
     &QS
       EPS_DEFAULT  1.0000000000000000E-010
       METHOD PM6
     &END QS
   &END DFT
   &SUBSYS
     &CELL
       A  9.0359999999999996E+000  0.0000000000000000E+000  0.0000000000000000E+000
       B -4.5179999999999980E+000  7.8254055485961880E+000  0.0000000000000000E+000
       C  0.0000000000000000E+000  0.0000000000000000E+000  1.4712000000000000E+001
       PERIODIC XYZ
       MULTIPLE_UNIT_CELL 1 1 1
     &END CELL
     &COORD
       O  1.0153320646723085E+000  2.9739919951484395E+000 -8.1241819467001417E-002
       H  9.5936952430121269E-001  2.6065796516222823E+000  8.6982044245060608E-001
       H  1.8065202887677303E+000  2.4676373348130638E+000 -4.0595384962204474E-002
       O  1.7437360816901795E+000  3.3389467074544771E-001  2.9073877198194067E+000
       H  2.3549063792646727E+000  6.9500333597625297E-001  2.2056634828600949E+000
       H  2.0995701942791829E+000 -5.9455719314564814E-001  2.8807513316032574E+000
       O  9.5872524865212161E-001  2.4443343436988330E+000  4.0978633662866546E+000
       H  5.6869059353835738E-001  2.4762522816944044E+000  5.3135913061869662E+000
       H  1.8858459841076345E+000  2.5669573316598320E+000  3.9383366208607971E+000
       O  2.8217564295519395E+000  2.0691695896466622E+000  5.9402566998164934E+000
       H  3.6937507789315958E+000  2.1067533777474678E+000  5.6171155703738673E+000
       H  3.1056372689061842E+000  3.0661358225207946E+000  6.5617026575019679E+000
       O  4.9594700447956619E-001  2.5794068967256973E+000  8.0182256777343035E+000
       H -4.6701709263496394E-001  3.0501333967504047E+000  7.8686153527919860E+000
       H  6.3769831801441024E-001  2.8015596394243327E+000  7.0342000081443343E+000
       O  2.7924600319382265E+000  8.6155130843398586E-001  1.0370241853030631E+001
       H  3.5602896815430407E+000  1.3275047746406379E+000  9.9540786953259666E+000
       H  2.2289913302885545E+000  8.5002661265502533E-001  9.7370107011336255E+000
       O  8.7068964350826705E-001  3.5780023174700486E+000  1.1182715828428412E+001
       H  1.5432966993624109E+000  2.6799712044651640E+000  1.1395953731347822E+001
       H  4.8071543912980791E-001  2.9424458788296808E+000  1.0249252891006458E+001
       O  2.9275310184945895E+000  1.0569035727685749E+000  1.3079829903042903E+001
       H  3.8066119238410256E+000  1.6301445849227181E+000  1.3386057473213864E+001
       H  3.4250734620569907E+000  6.3891176952883255E-001  1.2400778381545610E+001
       O -2.0345459717635377E+000  7.1126388102214078E+000  8.7918267794804872E-001
       H -1.8345209714483313E+000  7.3636711256169223E+000 -2.5910508008679195E-001
       H -2.5933910153299560E+000  6.3493805218810815E+000  5.7815556026848558E-001
       O -8.9452144695355251E-001  4.5840677105536551E+000  2.5309524499077591E+000
       H -1.5092469144867715E+000  4.7291564585181041E+000  3.2769962248433444E+000
       H -1.1742358719060100E+000  5.2104166579310593E+000  2.0936268678571230E+000
       O -2.2738310415064360E+000  5.7410609366550593E+000  5.5070939000815455E+000
       H -2.1293778377159644E+000  5.7744016188700478E+000  6.4184890993836818E+000
       H -1.2101037326736179E+000  5.9879545287983387E+000  5.5747105717926821E+000
       O  1.3966272620502394E-002  5.1011216189880564E+000  6.1086610800690115E+000
       H  9.2825168855804707E-001  5.6365765375924797E+000  5.7074339515972445E+000
       H  3.2073678898782770E-001  5.5171006702807208E+000  6.8759374662680930E+000
       O -3.1019271774028123E+000  8.1616858600108202E+000  6.8142041773924120E+000
       H -2.5480742789180968E+000  7.6569150532381540E+000  6.3066887460002228E+000
       H -2.6794402403782560E+000  7.5244361297742008E+000  7.5300002086835471E+000
       O -1.3733949622974257E+000  5.9391379566413969E+000  8.6225403400939911E+000
       H -1.6467793344797637E+000  6.6189876170874085E+000  8.9851560292303141E+000
       H -7.8381486375060783E-001  6.1194667915582084E+000  8.2711844369789596E+000
       O -3.0072899084741262E+000  6.3264325618050048E+000  1.0646952314492195E+001
       H -3.3257475108809684E+000  5.5337519442024634E+000  1.0729073494020248E+001
       H -3.9644710775336911E+000  6.3878169182238116E+000  1.0141410210065546E+001
       O -2.6704959637118458E-001  6.1228735987437695E+000  1.3191477820292878E+001
       H -1.2611665168011872E+000  5.7938314433166322E+000  1.3037413904667263E+001
       H -3.1836973828002196E-001  6.7797324741864733E+000  1.4007367980239708E+001
       O  4.2902643132053102E+000  9.7617042437312429E-001  7.4199172462370422E-001
       H  4.9024486114988113E+000  4.4687520553947735E-001  4.7345158391294329E-001
       H  5.0557261904882793E+000  1.5331423473075989E+000  9.4581810613251549E-001
       O  7.1130392027118088E+000  1.7350058616884971E+000  2.7230281016401610E+000
       H  7.5287303146178965E+000  2.5994357499874572E+000  2.8348299909125352E+000
       H  7.4915859731339536E+000  1.5623404707322777E+000  3.6168135730804059E+000
       O  4.0434045625229187E+000  2.8825544320995151E+000  3.7425789841356072E+000
       H  4.4772759654234173E+000  2.4795189337945400E+000  2.8109214397775801E+000
       H  4.5452778296007041E+000  3.7947843134615500E+000  4.2727667379978449E+000
       O  7.7854993299405590E+000  4.0928829414445128E-001  6.1687420534598223E+000
       H  8.9424660637899986E+000  7.0240487134751881E-002  6.8026096194750645E+000
       H  8.4731105154674236E+000  1.0392418360812656E+000  5.5452151946176560E+000
       O  5.0515224588613021E+000  1.8105059404275963E+000  7.4895999405582074E+000
       H  5.8047492364344224E+000  2.2913961256672875E+000  7.5136078097182430E+000
       H  4.9653055229752958E+000  2.3773959828248987E+000  8.4914444743327504E+000
       O  7.2458363797520402E+000  1.5983601381808572E+000  1.0022761033521357E+001
       H  6.8812246795213232E+000  2.3452630107859829E+000  1.0416090535185745E+001
       H  7.2001475193724511E+000  9.4523195492005174E-001  1.0588231479026762E+001
       O  4.9506988932236604E+000  2.5794592429825109E+000  1.2050510481830447E+001
       H  4.6586299271986169E+000  3.4347290371000070E+000  1.1608171169037265E+001
       H  5.3186075510368562E+000  3.0614124447654136E+000  1.2818084484887775E+001
       O  7.5034584642074558E+000  1.3102378937441543E+000  1.3666741788031462E+001
       H  8.6094312804040509E+000  1.0587005236918456E+000  1.3763001838881138E+001
       H  7.9142129898458684E+000  8.2031345755429363E-001  1.2909595496222158E+001
       O  1.9553376766583042E+000  6.3388819480465282E+000  9.5031281415641189E-001
       H  1.0213354686720615E+000  6.1655232745833990E+000  9.3165699604397112E-001
       H  1.6030234236247969E+000  7.0574781027705820E+000  2.1780532435493535E-001
       O  5.3704931119354464E+000  5.1649278053946706E+000  1.6139099323172743E+000
       H  5.2925717660005898E+000  5.4282184477284865E+000  2.5591140809054593E+000
       H  4.5185746964474180E+000  4.8976668417002083E+000  1.3379705902327814E+000
       O  1.1188089814724649E+000  7.0825940566637664E+000  3.9942544918962812E+000
       H  1.9836028734047728E+000  6.8588318711749183E+000  3.8213403897609934E+000
       H  1.1135944062962915E+000  6.7709580610245919E+000  3.1113383176939875E+000
       O  3.7573956441220990E+000  5.6517348844212840E+000  5.3553165556801350E+000
       H  4.4754362091297031E+000  5.5731238345281557E+000  4.5241613598420543E+000
       H  3.5725851318520196E+000  6.6217748013404965E+000  4.9114352450305834E+000
       O  1.6946558263430795E+000  6.1720776419557666E+000  8.6234198379186608E+000
       H  1.5512355393196116E+000  6.9933884282418530E+000  9.1898199413686861E+000
       H  2.1085015942429393E+000  6.7677964524809830E+000  7.9705735594920268E+000
       O  4.2186834195778049E+000  4.4288614100551920E+000  9.3286622885549129E+000
       H  3.8021537691989797E+000  4.0943273565776357E+000  1.0307606509177177E+001
       H  3.3140015295749934E+000  4.9779250465133087E+000  9.2624678139473335E+000
       O  1.1857316225511700E+000  7.6746277378390326E+000  1.1257687225529015E+001
       H  2.4262350904823277E-001  7.2706842585017268E+000  1.1675460574822552E+001
       H  1.3739711999465056E+000  6.7363934797950948E+000  1.1726377983589787E+001
       O  4.5916211405113758E+000  5.9478497654473941E+000  1.2998762817709920E+001
       H  5.1745898083663473E+000  6.6928376788158870E+000  1.3000225236149904E+001
       H  4.6023355875227248E+000  6.0855925122185406E+000  1.3826526503366731E+001
     &END COORD
     &VELOCITY
         2.1353450171743128E-004  3.7822656798415031E-005  1.8863714402154484E-004
        -1.4421744336400109E-003  1.4299131403593388E-003 -2.6624052817459558E-004
         1.5538159426810663E-003 -5.0113268453793409E-004 -6.4182708680373974E-004
         6.3246826028987097E-005 -3.9711065909279239E-004  1.0163328572119191E-004
         1.1587636288338445E-003  2.3079520235336102E-003 -1.8558223297536667E-003
        -2.3559546841513497E-003 -3.2367441635819920E-004  1.3770817745198235E-003
        -7.4111529690610325E-005  6.8271246859891413E-005  2.0177494029576349E-005
         9.7039662354559363E-004  2.0448893515863603E-004 -9.5021372150765916E-004
         4.2166368237078159E-004 -4.6724180725725732E-004  1.7155425355993232E-003
         2.0731523552849765E-004  1.1075912196995338E-004  1.2958079260712318E-004
         2.6501369607539300E-004 -1.2880031138490650E-003 -1.0297382404251547E-003
        -1.2785144466110347E-003 -1.4545340561843158E-003 -5.7260529776871757E-004
        -2.0745745517103815E-004  2.8205042549199206E-004 -1.4749679662439874E-004
         9.1666431783906592E-004 -2.5617811594135122E-004  4.2429130744448803E-004
        -1.0106731453629622E-004 -2.5832999858739296E-004  1.5431495752330300E-003
        -1.0243699835931245E-004  2.2548061465848930E-004 -3.2199872391243303E-004
         2.9698063596423261E-003  3.1953325507758757E-004  1.6834383361559225E-003
        -1.7710322032304625E-003 -2.3270443415814141E-003  2.3986913324620615E-003
         1.1593420616623731E-004  6.0435478514729536E-004  3.2450133304470861E-004
        -1.0004791100248845E-003 -1.2849398230361516E-004 -1.7792729209271498E-003
         1.0509173777243335E-003 -2.0227574102428176E-003  1.5050817775300019E-004
         3.7860660408005456E-004 -2.0442171544146002E-004  1.1957699316263374E-004
        -1.2585186200398813E-003 -2.4818031353636126E-003 -1.5236760942155831E-003
         3.7784840925730021E-004  9.8271287116078626E-004  2.5610515051298082E-003
        -1.0407872666378131E-004  6.6759779829474273E-005 -6.1575640460120369E-005
        -1.2850108659808084E-003 -1.3286395127318953E-003  1.7161887200559311E-003
         2.0541060985684026E-003  2.5651443257455929E-003 -1.4813432311286674E-003
        -4.4413189449514826E-004  1.8988484867414081E-004  1.2039846548614545E-004
         1.9067275197968477E-003 -8.6292413370844183E-004 -2.2962057596978874E-003
         8.5895935825658766E-004 -1.7656799771303465E-003  1.6376257637955164E-004
        -1.2805892568283826E-004 -9.7523231236099585E-005  4.8848928304071342E-004
         3.3777168099994519E-004  6.3894567330475725E-004 -2.1908911285069056E-003
        -5.2047459412599357E-004 -1.6362533905299437E-004  1.0572219479841210E-003
        -5.2374699650184768E-004 -3.1862068226665488E-004 -1.9250264461307217E-004
         1.6569315658606174E-003  1.4412150476789162E-003 -8.7133174038526680E-006
         2.2778211730612829E-003  4.4295490927091942E-004  2.8933692800303592E-005
         9.5631694439655201E-005 -3.3026584593130880E-005 -5.9450928270002150E-004
        -1.1620924858060813E-003  4.0796890008734692E-004  6.9406409557478776E-004
         1.0647850554640248E-003 -8.4254441480267569E-004  1.1209605788792779E-003
         2.6406456092697853E-004  3.0826748208150285E-004 -4.0795149748731939E-004
        -1.5330967362534235E-003 -1.2754224695149187E-003  1.1072731064282191E-003
        -8.9918594166273763E-004 -1.2733996706638646E-003  7.8635987547642046E-005
        -4.6211246670672533E-004 -1.3661762368932659E-004 -1.3136426037770887E-004
         1.4753311596368428E-004  3.2468931478050922E-003 -2.2330284336054536E-004
         1.4378074647596142E-003 -1.5302154120634146E-003  1.2901577089650237E-003
        -2.2427702568175869E-004  7.4999757767477420E-005 -5.5764469344332574E-005
        -3.5001107912904984E-005 -1.0601958987836735E-003 -9.7501947081143371E-004
         2.0328290607140114E-003  8.9527119118311253E-004  7.6299579431521249E-004
         1.6393979798286852E-004 -2.4146905198813170E-004  1.7825413254865928E-004
        -4.6208108465982660E-004  1.3974532593602094E-003  5.3251937579692067E-004
        -3.5862770926712369E-004 -1.6353262528594674E-003 -4.4885195142467922E-004
         9.1142451651667051E-005  3.7009099586413129E-004 -6.2455723303341955E-005
        -4.3021872589883004E-004 -2.4900176994147346E-003  1.0012137283786989E-003
         3.9119999383728168E-004  2.2747366120107878E-003 -1.5256188413333479E-003
        -1.0321865726055826E-004 -1.6598550850122290E-005  3.5474909373167825E-005
         1.0333975171487621E-003 -1.0128763080572783E-003 -1.8808623897078787E-003
         7.0145549212048675E-004  1.3433934570638967E-003  1.0318061837925419E-003
         2.9178720036857379E-004  1.3599488079260393E-004 -9.1489825366753626E-005
        -1.2914579416164747E-003  7.7344249253238001E-006 -6.9206406421282564E-004
        -1.0039472727970591E-003 -1.4385593693049886E-003  1.1355994182753737E-003
         1.0752351113195925E-004 -5.1383210986543130E-005 -5.1005517198540794E-005
         1.3245657484112312E-003  2.9162257929562607E-004 -4.5218242330000272E-004
        -3.5235577187793792E-004 -8.7583110323799225E-004 -1.2721789750514665E-003
        -1.3987961157076295E-004 -2.0618150791551983E-004  1.8491776049808675E-004
        -1.2823212452425152E-004  3.4441579140721871E-003  3.7750680445313090E-004
         1.3993590143823167E-003 -2.0689483247737302E-003 -6.5589705590072026E-004
         1.8040210023850730E-004  6.3807092085837829E-004 -2.7014772839562993E-004
         2.1168571351286590E-004 -2.2476070775819847E-003 -1.0782886337021120E-003
         1.0285921043574244E-003 -8.4112719761925614E-004  1.9807806334068596E-003
         1.4589822173738729E-004 -1.2925544662438496E-004 -1.5565935332239095E-004
        -2.8480016481850696E-003  3.4681014715470153E-004 -1.2224747094190182E-004
        -3.3334449563523209E-004  8.0765673507646239E-004  1.2464232797700068E-003
        -5.2338643248430405E-004  1.2582795530445348E-004  5.5611442584091371E-005
         1.8144613860959966E-003 -1.5918294523438814E-003  1.3902878302623684E-003
         5.6705585874456473E-004  1.4554818045719484E-003 -7.9599011964174161E-004
        -7.1575682892003527E-004 -1.7124402817311082E-004  3.7341362579502280E-004
         2.6128300139443548E-003  6.0684175529150837E-004 -7.6489700473837013E-004
         3.1369651751186061E-003  2.0538265890237699E-004 -2.3177748854958397E-003
        -1.7289221459520444E-004 -2.6081168972976815E-004 -9.0492350240744149E-005
        -9.8594376734457067E-004 -2.9886816199738630E-004 -4.6072629477018900E-004
        -2.0517491140369538E-004  2.3882167637180596E-004  1.2822846447590678E-003
        -2.9740869114780615E-005  4.0313981112115094E-004 -1.2216878671953186E-004
        -1.9979440629944517E-004  1.4272296531288838E-003 -7.3863181829723944E-004
         2.2755612972761072E-004 -2.5264363690460983E-003  1.7527604724497449E-004
         1.3354755264970755E-004 -9.9291438381067011E-006  3.3948105882356119E-004
        -4.1321605082284739E-004 -4.4109620230198710E-004  1.8512374674591666E-003
         6.7231751550543149E-004 -1.1477178261000878E-004 -2.0275036474882331E-003
        -2.5495215182156126E-004 -1.3988880514342354E-004 -7.3192267957600227E-005
        -5.7323117957273125E-004  1.2704228548686735E-003 -2.2790652742646134E-003
         1.5649203938074283E-003 -1.6053912952976553E-003  1.6384803547235542E-003
        -3.1392978898825094E-004  4.9343749583161809E-005  2.3487738540716948E-004
         1.9321397315993530E-003 -1.7207575251161541E-004  3.2765362337105954E-004
        -2.1394413728166978E-003  1.7506197943110112E-003 -1.5192991780611429E-003
        -1.0566834669936767E-004 -5.2674663133022070E-005  1.4030130117360253E-004
         1.3913222043145108E-003  2.4727717044861687E-004 -7.5411800588278408E-004
         1.9318080821706236E-004 -7.5198816856234169E-004  1.0321434818640930E-004
     &END VELOCITY
     &KIND "H"
       ELEMENT "H"
       MASS  2.0141019999999998E+000
     &END KIND
     &TOPOLOGY
       COORD_FILE_NAME ice_d20relaxed.xyz
       COORD_FILE_FORMAT XYZ
       NUMBER_OF_ATOMS 96
       MULTIPLE_UNIT_CELL 1 1 1
     &END TOPOLOGY
   &END SUBSYS
 &END FORCE_EVAL
