 # Version information for this restart file 
 # current date 2026-02-16 22:48:26.118
 # current working dir /Users/mackenziehenley/cp2k/D2O_ice/CP2K
 # Program compiled at                                       2025-01-01 12:26:53
 # Program compiled on                                                          
 # Program compiled for                                                    arm64
 # Source code revision number                                                  
 &GLOBAL
   PRINT_LEVEL LOW
   PROJECT_NAME "Titan_Ice_D2O_96"
   RUN_TYPE MD
 &END GLOBAL
 &MOTION
   &MD
     ENSEMBLE NVT
     STEPS 1000
     TIMESTEP  4.9999999999999994E-001
     STEP_START_VAL 500
     TIME_START_VAL  2.4999999999999795E+002
     ECONS_START_VAL -3.7215477377153161E+002
     TEMPERATURE  9.4000000000000000E+001
     &THERMOSTAT
       TYPE CSVR
       &CSVR
         TIMECON  9.9999999999999986E+001
         &THERMOSTAT_ENERGY
             9.6194719723133915E-001
         &END THERMOSTAT_ENERGY
         &RNG_INIT
 Wiener process for Thermostat # 1        1 F T F   7.0838577565347161E-01        1261916728.0        2348545333.0        3067717502.0        2311078479.0        2657739642.0        2524479427.0             12345.0             12345.0             12345.0             12345.0             12345.0             12345.0             12345.0             12345.0             12345.0             12345.0             12345.0             12345.0
         &END RNG_INIT
       &END CSVR
     &END THERMOSTAT
     &AVERAGES T
       &RESTART_AVERAGES
         ITIMES_START 1
         AVECPU  3.4971252960003913E+000
         AVEHUGONIOT  0.0000000000000000E+000
         AVETEMP_BARO  0.0000000000000000E+000
         AVEPOT -3.7320378693342093E+002
         AVEKIN  4.3089317204227479E-001
         AVETEMP  9.5484308551180072E+002
         AVEKIN_QM  0.0000000000000000E+000
         AVETEMP_QM  0.0000000000000000E+000
         AVEVOL  7.0202309426947704E+003
         AVECELL_A  1.7075565336754671E+001
         AVECELL_B  1.7075565336754671E+001
         AVECELL_C  2.7801650867013532E+001
         AVEALPHA  9.0000000000000000E+001
         AVEBETA  9.0000000000000000E+001
         AVEGAMMA  1.1999999999999999E+002
         AVE_ECONS -1.5157097494860534E+002
         AVE_PRESS  0.0000000000000000E+000
         AVE_PXX  0.0000000000000000E+000
       &END RESTART_AVERAGES
     &END AVERAGES
   &END MD
   &PRINT
     &TRAJECTORY SILENT
       &EACH
         MD 2
       &END EACH
     &END TRAJECTORY
   &END PRINT
 &END MOTION
 &FORCE_EVAL
   METHOD QS
   &DFT
     &SCF
       MAX_SCF 50
       EPS_SCF  1.0000000000000000E-004
       IGNORE_CONVERGENCE_FAILURE T
       &OT T
         MINIMIZER DIIS
         PRECONDITIONER FULL_SINGLE_INVERSE
       &END OT
     &END SCF
     &QS
       EPS_DEFAULT  1.0000000000000000E-010
       METHOD PM6
     &END QS
   &END DFT
   &SUBSYS
     &CELL
       A  9.0359999999999996E+000  0.0000000000000000E+000  0.0000000000000000E+000
       B -4.5179999999999980E+000  7.8254055485961880E+000  0.0000000000000000E+000
       C  0.0000000000000000E+000  0.0000000000000000E+000  1.4712000000000000E+001
       PERIODIC XYZ
       MULTIPLE_UNIT_CELL 1 1 1
     &END CELL
     &COORD
       O  1.8358208092987785E-001  2.5530292728743125E+000  3.4563712871432511E-001
       H  1.0849938086080366E+000  2.1370456500309718E+000 -1.0854521874318840E-002
       H  2.4644987597861373E-001  3.5393462977447365E+000  1.5405639930457873E-001
       O  2.5628113282110685E+000  9.8352522414323196E-001  2.6243414356746300E+000
       H  3.0606948985514388E+000  1.7551007276207000E+000  2.0697792053387611E+000
       H  2.0587701688819138E+000  1.4415498801566986E+000  3.3528824255252281E+000
       O  5.1554740082353091E-002  2.4951053875034290E+000  4.1258939233157177E+000
       H  9.9063737280700426E-001  2.2152444381302954E+000  3.9104747722550095E+000
       H  7.1542395637295914E-003  3.5550761736198226E+000  3.8119081683139271E+000
       O  2.5424804923427438E+000  1.8853400887549168E+000  5.6957714169889107E+000
       H  3.4521981998935209E+000  2.0561073632204749E+000  6.1727868638218544E+000
       H  1.8176105002507490E+000  2.1184346872791129E+000  6.4094002820841016E+000
       O -2.5884236311981362E-002  2.7094769743572886E+000  8.0675835066048780E+000
       H  7.6762320162414888E-001  2.6884613149630172E+000  7.3816945314555271E+000
       H -3.5143392551975983E-001  3.7731494469986795E+000  8.0900781990642603E+000
       O  2.5471974652668941E+000  1.2896370388575409E+000  9.6392136088332236E+000
       H  3.1355501245532360E+000  2.0871362139223488E+000  9.1623915970395409E+000
       H  1.6096700422973762E+000  1.8003075873721288E+000  9.8933225664170763E+000
       O  2.9003831946169023E-001  2.6444902474227612E+000  1.1264569257205705E+001
       H -2.7248501347296927E-001  2.8006316586720685E+000  1.0319205779430101E+001
       H  2.6387632507049230E-001  3.6000208141676331E+000  1.1768989467573139E+001
       O  2.1436406094388540E+000  1.0112766817219876E+000  1.3010335298541165E+001
       H  3.1574570868233667E+000  1.4395988213453543E+000  1.3007465194219872E+001
       H  1.7166959511743167E+000  1.3940595873663877E+000  1.2099677825070390E+001
       O -2.4340356143188342E+000  6.8968143455158595E+000  6.1344396714521854E-001
       H -2.7195398055846005E+000  7.4785697866245355E+000  1.3996294849691593E+000
       H -1.8907680695768569E+000  7.4964497476328980E+000 -3.2519047954756336E-003
       O  5.9769781653440053E-002  5.0087558804272732E+000  2.5635885301716206E+000
       H  7.3107307406214339E-001  5.7184063793313085E+000  3.0588228270707534E+000
       H -9.2321217629674890E-001  5.4399864506404727E+000  2.7664746277331935E+000
       O -2.1761337527080342E+000  6.5598048501599653E+000  4.4558144012475793E+000
       H -2.8555530840521963E+000  6.0943637909062902E+000  5.1212699573591793E+000
       H -2.2202069097646921E+000  7.5493595260424806E+000  4.6569892151031045E+000
       O  2.6154797386847189E-001  4.7657220624601440E+000  5.9225927600387545E+000
       H  1.0589495611417403E+000  5.4137898282281700E+000  6.0681266177566195E+000
       H -5.1438628343135229E-001  5.3404846526262491E+000  5.4554453033604950E+000
       O -2.3612040286912537E+000  7.0910408270350613E+000  7.8022834501388338E+000
       H -3.2856980979043833E+000  6.6416654916205591E+000  8.0920418135497769E+000
       H -2.3610876623915265E+000  8.0517655446569769E+000  8.2449480804817181E+000
       O -4.2660997496815195E-001  5.3109331652425444E+000  9.1445705890190698E+000
       H  5.6536309108821847E-001  5.6772628656607100E+000  8.8565037160472269E+000
       H -1.0891861275495369E+000  6.0813594615425206E+000  8.7397830721970937E+000
       O -2.7391903687758377E+000  6.4529909117053146E+000  1.1418656068234576E+001
       H -1.8340229025807500E+000  5.8172127019171933E+000  1.1518148258322343E+001
       H -2.3776400338546471E+000  7.4232248735223338E+000  1.1726222121449545E+001
       O  8.5964727872634678E-002  5.1664938261837507E+000  1.2846539314065442E+001
       H  8.6342174149145534E-001  5.6337522289363431E+000  1.2340840328690753E+001
       H -7.8005328728153345E-001  5.4392117985839876E+000  1.2352906583918642E+001
       O  4.6125777750619088E+000  2.3727576329669242E+000  4.7182156464771385E-001
       H  5.3502499281917961E+000  1.8595752889595019E+000  1.0182234735519957E+000
       H  4.2963265325998643E+000  3.1548554540293714E+000  1.0948279733818775E+000
       O  6.8253903552841315E+000  1.2650210972128675E+000  2.3662044565030080E+000
       H  7.9068702138388121E+000  1.3918633321667178E+000  2.5471805614341934E+000
       H  6.3526801172479459E+000  1.7455924365138218E+000  3.1942438686794343E+000
       O  3.9633138853462442E+000  2.4333544137018794E+000  3.9989285092650855E+000
       H  4.9140072768147576E+000  2.0853840132364918E+000  3.7236985252494708E+000
       H  4.1546047172707814E+000  3.4845996095146288E+000  4.2259719295806919E+000
       O  7.1501592650429027E+000  1.0436189058075676E+000  6.2378618676145825E+000
       H  7.7796781228065726E+000  1.5974771650826740E+000  6.8761562194410297E+000
       H  6.2093427703611610E+000  1.5073927365709705E+000  6.3470220090776541E+000
       O  4.5746523697105816E+000  2.5580485446384484E+000  8.0162440521341480E+000
       H  5.2697793177504320E+000  2.2596628376271957E+000  8.7981782166038620E+000
       H  4.5141045213121407E+000  3.6037965657502169E+000  8.1066492137953254E+000
       O  6.7680228705697623E+000  1.5090499701645106E+000  9.7637519987066881E+000
       H  7.4657382142528634E+000  2.2950601400944528E+000  9.7005851635987010E+000
       H  6.4638709292416747E+000  1.5190857899915240E+000  1.0805395536034721E+001
       O  4.7585669219561533E+000  2.8612419364734607E+000  1.1888009697939767E+001
       H  4.4519374001518317E+000  2.6753701750148080E+000  1.2904475490177441E+001
       H  4.6193774106941170E+000  3.9032966162768203E+000  1.1708762010147909E+001
       O  7.2896665750698446E+000  9.1074749617300454E-001  1.3218781837788839E+001
       H  8.1136782752026058E+000  1.5775756928926195E+000  1.3261887065287583E+001
       H  6.5008912955388416E+000  1.4154515084406607E+000  1.3759899731243028E+001
       O  2.6565052325199323E+000  6.4383617193237246E+000  6.2734156064780477E-001
       H  2.9614559982573021E+000  5.9864545462048770E+000 -2.5891963986345629E-001
       H  2.7728064829088144E+000  7.3994157261478106E+000  4.7437371044138066E-001
       O  4.4495655147827220E+000  5.0003797787461588E+000  2.1265318970186025E+000
       H  4.9336225739015882E+000  5.5144578203138437E+000  1.3660061694600079E+000
       H  3.4311930439928995E+000  5.3451225240995406E+000  2.0420464808496734E+000
       O  1.9573065209468430E+000  6.6218246991206469E+000  4.1496035801106244E+000
       H  2.8519314508086007E+000  6.1662271671839566E+000  3.9770627414973632E+000
       H  1.9965791275647875E+000  7.4969523570452301E+000  3.6215550232033316E+000
       O  4.1578260183569586E+000  5.2008500191815230E+000  5.8909040547004761E+000
       H  4.0082109928645142E+000  6.1473041290399619E+000  5.8043578562683571E+000
       H  3.2405985951865244E+000  4.8072784207214534E+000  6.1615789370730427E+000
       O  2.1058726202852491E+000  6.5051606221971277E+000  7.9580738321067885E+000
       H  2.5098450504206768E+000  6.7222977907430126E+000  8.9110656038050724E+000
       H  2.0996753600709042E+000  7.4730859007635395E+000  7.4136293133479043E+000
       O  4.4694468592847851E+000  5.0236704085134143E+000  9.9048823063138958E+000
       H  5.3687696638599549E+000  5.5616802048144773E+000  9.6526709661326855E+000
       H  3.6659641749004508E+000  5.6617361292015307E+000  9.6258236654075713E+000
       O  2.1529232192924135E+000  6.5971794109425321E+000  1.1059718241214551E+001
       H  3.0293363923895322E+000  6.0404745502126023E+000  1.1384838716775816E+001
       H  2.2742202396919295E+000  7.5818067747858331E+000  1.1486011589162256E+001
       O  4.3611489744032941E+000  5.5777359128409651E+000  1.3199823201006563E+001
       H  5.3301069693046674E+000  5.8715942404494870E+000  1.3576400378703354E+001
       H  4.5077063108835196E+000  5.5323519915117734E+000  1.2126987367200726E+001
     &END COORD
     &VELOCITY
         2.4080661025120204E-004  2.1277676552952472E-004 -1.8416186879370447E-004
        -3.2569554586625278E-004 -2.9708955533520642E-004  5.9867684005928572E-005
        -9.1521896798795594E-004 -1.6739472476134795E-003  4.0843295334769492E-004
         1.1364618778461890E-004  1.7247953842105632E-004 -2.0434670365268221E-004
        -1.1657196911605928E-005 -1.2165830444467313E-003  4.1828681246672668E-004
        -6.5065603074848579E-004 -1.8469031408835488E-004  8.0625791320214075E-004
        -6.6970440135749303E-005  2.2455280526426089E-004 -4.4772050090798823E-005
         1.2787583525090429E-003 -1.3271603155404557E-003 -7.8344312530821962E-005
        -9.5430237079942510E-004 -2.5343876270240528E-007  2.6823860466082680E-004
         2.9232241254770078E-004  9.1783993278651873E-005  9.1521098415088287E-005
        -1.0274728255962151E-003 -6.7832643440916926E-004 -1.0759750445860346E-003
        -1.0907299209692452E-003  3.1303470243625268E-004  2.6519229174258330E-004
         1.0069617721231673E-004  6.0704999339522735E-005  1.8029005631418745E-005
         1.0545693930876909E-003 -5.4936462662439484E-004 -5.1614383098671232E-004
        -7.4107918324360243E-004 -6.0426610249572907E-005  4.7682137393954848E-004
        -8.6284437236209291E-005  2.0596521175735727E-004 -1.1638608940915051E-005
         1.2944631827170158E-003 -6.3536396022925419E-004 -4.0040861871938545E-004
        -5.0721590445580104E-004 -5.5953901147902613E-004  2.0532651390966925E-004
        -6.5932567609722887E-005  1.0619418383735154E-004 -2.1474284118849223E-004
        -1.0504289363895567E-004 -6.3005574787450259E-004 -7.5438554883329662E-004
        -4.4203592543926737E-005  1.8792551323772830E-004  7.0077578180413114E-004
         2.1385185092290810E-004  1.7977635547089741E-004 -8.1924194905197989E-005
        -1.3401831314821969E-005 -6.0688572960119168E-004  8.8009122179431713E-004
        -8.4740512800268112E-004 -3.1650290007353586E-004 -3.4786249962304552E-004
         3.4385913576334541E-005  2.7596073625246097E-004  9.1497558217287832E-005
         2.9102857061386603E-004 -7.0115467636006220E-004 -5.7565917549224667E-004
        -8.7378562358043465E-004 -1.4138228249328533E-003  7.5322470263194962E-004
        -2.3068574850737696E-004  1.5106452426499019E-004  1.4301837385780237E-004
         9.3501320592365232E-004 -5.5026292620440911E-004 -2.1898351110953275E-004
         3.5734494513778509E-004 -9.4033713522051194E-004 -4.4900201166337387E-004
         7.6694379573341733E-005  8.1106121547740059E-005  2.9115918622585693E-004
         2.2404862026994700E-004  2.0367238077837325E-004 -8.2739262144860008E-004
        -1.9179039608446173E-004 -1.4810370856761226E-003 -7.5953509449056119E-004
         1.6990600627062887E-004  2.0693809571874108E-004  5.4946802424159615E-005
        -9.0895323500572072E-004 -1.5087773246730734E-003  3.9980660140048331E-005
        -4.9402670591648830E-004 -3.2325354358989973E-004 -2.7485014200540379E-004
        -1.1130078142117712E-005  1.3852010052089165E-004  1.8533913325730468E-004
         1.6120131188280528E-004 -3.9289537055238173E-004 -6.1454083508153691E-004
         2.4338776117010079E-004 -7.8140354671161723E-004 -6.1569518784793380E-004
        -4.4940484605092755E-005  2.2965501120162393E-004 -1.9001047894156943E-004
        -2.0038167552439843E-004 -1.0115331950550700E-003  6.0280606530979002E-004
        -6.3169519428850308E-004 -1.9733282520431399E-004 -6.9349229879555702E-005
         8.8629988994525680E-006  1.7899401516167346E-005  8.7109530850747131E-005
         1.2245244793972741E-004 -1.2684082624379591E-003 -3.6013464648180561E-004
        -1.2569879395681000E-003  7.5157143637371009E-004 -3.6992053137980147E-004
         1.1270289335606431E-004  8.7319490532196997E-005 -2.6279608339743418E-004
        -3.5456065540561077E-004 -8.9494807001001581E-004  5.7413227408574464E-004
        -1.0683227956354673E-004 -4.4910286027104401E-005  1.8540381849763011E-004
         1.2188782819117782E-004 -8.7372068156630868E-005  2.2993674597207063E-004
        -3.9327303916293654E-004  4.2230256508259410E-004 -1.1756805008614648E-003
        -1.1512494188701195E-004 -3.4813170484914147E-006 -5.8351705682710268E-004
         1.2412577758376671E-005  2.7024011653907332E-005 -1.1471899405873211E-005
         4.4243397763311861E-004 -5.1519702526256635E-004 -6.9084025988733352E-004
        -9.5694283011049208E-004  2.5018492043077438E-004  1.0678353351248760E-003
         3.9665644756421512E-005  2.5122435613067235E-004  8.7298560335645372E-005
         7.3989804588417191E-004 -1.0130268906621668E-003 -3.0531397945722646E-004
        -1.1117270649257400E-003 -8.6067551012446490E-004 -3.1749093867229470E-004
        -3.1168370886162380E-004  2.1214301360839160E-004  2.0371222592475459E-004
         5.2251304316489337E-004 -7.0017943562410384E-004  8.2011233384118032E-005
         1.1474096090846764E-003 -1.1295881352252817E-003 -5.7860728406183132E-004
         1.8116827269683768E-004  7.0713717187810169E-005  1.6851959997663175E-004
        -7.2481800775720830E-004 -4.4465851774856002E-004 -4.4290099995019527E-004
        -7.0227710711024197E-004 -4.9220856829099331E-004 -8.8294792822819019E-004
         5.4793507387507913E-005  1.8146180645025700E-004  3.1809104133217141E-004
        -2.0600898924487738E-004 -3.0247637812691057E-004 -5.1584396349905191E-004
        -2.8972011864913423E-004 -3.5367823672196713E-004 -1.0471462542246380E-003
         5.3559191167218916E-005  2.1123194856864741E-005  1.0906399076820529E-004
         7.7568405798045194E-004 -5.8289215565513787E-004 -6.9001023151452027E-005
         3.5578552716132323E-004 -8.8682952843090516E-004 -1.4638644779072440E-004
        -2.7439853920762747E-005  1.6041192216682696E-004  1.1461278931476063E-004
        -3.3591294184783400E-004 -1.0261806056638490E-003 -4.4289333465864750E-004
         2.8849221932615728E-004 -9.9987243445753371E-004 -5.4603202812368665E-004
         1.3622333027588088E-004  3.6110931861083306E-004 -9.5721062649196297E-005
        -1.0598455939441034E-004 -3.4844284400370598E-004  2.5733918213510093E-004
        -4.7189533727104731E-004 -1.7601309222004707E-003  7.8080951823843224E-004
         7.8658951599543445E-005  2.1499418452076193E-004 -3.3451328614492165E-004
        -8.8717209288009149E-005 -1.1645926928735056E-003  1.3773415892365068E-003
        -6.5135114264679378E-004 -2.7477099692671612E-004  5.8256797243658978E-004
         2.5430309172176391E-004 -4.5220907671022318E-005 -8.1784103102720400E-005
        -1.3155124604713609E-003  5.1241490617235546E-004  4.5692077771804246E-004
        -1.1010393657349873E-003 -8.4684988833905997E-004  3.2537940562536640E-004
        -3.7495533365270773E-004  1.6686762546462607E-004  2.2950532587996639E-005
         7.0102490736996060E-004 -1.2924508106904725E-003 -1.7541474542958904E-005
         1.5518576853995995E-003 -2.7520175216526609E-004  2.3547967922943517E-005
         3.2420311077086892E-005  1.4354514011767001E-004 -1.3778624410899209E-004
         1.2185488006672775E-004  8.3443859657792745E-007  1.0402436514265845E-003
        -3.1544885940695274E-004 -9.3998722561072269E-004 -2.3312567186882421E-004
         5.6864409353259450E-005  9.2546806457242801E-005  1.2803776579588795E-004
         8.6514088472567318E-005 -6.1493366695626584E-004  2.8801686100528068E-004
        -9.7120321120087983E-004 -1.3796554601422890E-004 -3.3692227715108059E-004
         5.0844658846215774E-005  1.4880821862256293E-004  1.5255591617369116E-004
        -7.8140340939892482E-005 -4.2739692323276099E-004 -4.4950179887281717E-004
        -7.6243757429036530E-004 -1.6087304446929138E-004 -6.8677112388278205E-004
         2.2895198931383427E-004  1.8952009367577746E-004 -4.2981624043444660E-005
        -1.2089258070498230E-003 -7.1758829479551581E-004  5.2180139773204599E-004
        -1.9628682497100941E-005 -2.8002285091815012E-004 -4.2828072215938287E-004
     &END VELOCITY
     &KIND "H"
       ELEMENT "H"
       MASS  2.0141019999999998E+000
     &END KIND
     &TOPOLOGY
       COORD_FILE_NAME ice_d20relaxed.xyz
       COORD_FILE_FORMAT XYZ
       NUMBER_OF_ATOMS 96
       MULTIPLE_UNIT_CELL 1 1 1
     &END TOPOLOGY
   &END SUBSYS
 &END FORCE_EVAL
