 # Version information for this restart file 
 # current date 2026-02-16 23:16:37.963
 # current working dir /Users/mackenziehenley/cp2k/D2O_ice/CP2K
 # Program compiled at                                       2025-01-01 12:26:53
 # Program compiled on                                                          
 # Program compiled for                                                    arm64
 # Source code revision number                                                  
 &GLOBAL
   PRINT_LEVEL LOW
   PROJECT_NAME "Titan_Ice_D2O_96"
   RUN_TYPE MD
 &END GLOBAL
 &MOTION
   &MD
     ENSEMBLE NVT
     STEPS 1000
     TIMESTEP  4.9999999999999994E-001
     STEP_START_VAL 1000
     TIME_START_VAL  4.9999999999999636E+002
     ECONS_START_VAL -3.7215477377153161E+002
     TEMPERATURE  9.4000000000000000E+001
     &THERMOSTAT
       TYPE CSVR
       &CSVR
         TIMECON  9.9999999999999986E+001
         &THERMOSTAT_ENERGY
             1.2629284376401584E+000
         &END THERMOSTAT_ENERGY
         &RNG_INIT
 Wiener process for Thermostat # 1        1 F T F   3.6738641053093107E-01        1747276819.0          15275675.0        2492954750.0        1240525271.0         148586405.0        1766811893.0             12345.0             12345.0             12345.0             12345.0             12345.0             12345.0             12345.0             12345.0             12345.0             12345.0             12345.0             12345.0
         &END RNG_INIT
       &END CSVR
     &END THERMOSTAT
     &AVERAGES T
       &RESTART_AVERAGES
         ITIMES_START 1
         AVECPU  3.4404072380000725E+000
         AVEHUGONIOT  0.0000000000000000E+000
         AVETEMP_BARO  0.0000000000000000E+000
         AVEPOT -3.7335227975427028E+002
         AVEKIN  2.9545752795841118E-001
         AVETEMP  6.5472278499186780E+002
         AVEKIN_QM  0.0000000000000000E+000
         AVETEMP_QM  0.0000000000000000E+000
         AVEVOL  7.0202309426947795E+003
         AVECELL_A  1.7075565336754675E+001
         AVECELL_B  1.7075565336754675E+001
         AVECELL_C  2.7801650867013464E+001
         AVEALPHA  9.0000000000000000E+001
         AVEBETA  9.0000000000000000E+001
         AVEGAMMA  1.1999999999999999E+002
         AVE_ECONS -1.5218355841762357E+002
         AVE_PRESS  0.0000000000000000E+000
         AVE_PXX  0.0000000000000000E+000
       &END RESTART_AVERAGES
     &END AVERAGES
   &END MD
   &PRINT
     &TRAJECTORY SILENT
       &EACH
         MD 2
       &END EACH
     &END TRAJECTORY
   &END PRINT
 &END MOTION
 &FORCE_EVAL
   METHOD QS
   &DFT
     &SCF
       MAX_SCF 50
       EPS_SCF  1.0000000000000000E-004
       IGNORE_CONVERGENCE_FAILURE T
       &OT T
         MINIMIZER DIIS
         PRECONDITIONER FULL_SINGLE_INVERSE
       &END OT
     &END SCF
     &QS
       EPS_DEFAULT  1.0000000000000000E-010
       METHOD PM6
     &END QS
   &END DFT
   &SUBSYS
     &CELL
       A  9.0359999999999996E+000  0.0000000000000000E+000  0.0000000000000000E+000
       B -4.5179999999999980E+000  7.8254055485961880E+000  0.0000000000000000E+000
       C  0.0000000000000000E+000  0.0000000000000000E+000  1.4712000000000000E+001
       PERIODIC XYZ
       MULTIPLE_UNIT_CELL 1 1 1
     &END CELL
     &COORD
       O  4.3213812461886270E-001  2.5867253159941415E+000 -2.5499480882640024E-001
       H  1.1512448395248569E+000  2.0771549163348149E+000 -5.1447418047965721E-001
       H  4.1098955897864137E-001  3.3684391306372401E+000 -9.5185310150358426E-001
       O  2.9432262689754269E+000  1.0636701655459948E+000  2.4711684675929817E+000
       H  3.5365794076197439E+000  1.6600114936218471E+000  2.0660589295848886E+000
       H  2.3585465495158862E+000  1.6299946259847420E+000  3.0110854772160542E+000
       O  1.5463434935585756E-002  2.3286415564793179E+000  3.7962014459047397E+000
       H  7.9897223198509382E-001  2.0409508241840397E+000  3.3908349658056225E+000
       H -1.0777655804049850E-001  3.1526002224189433E+000  3.4076402941500659E+000
       O  2.4756681105717298E+000  2.0470241984151314E+000  5.6081322344289157E+000
       H  2.4730533575367288E+000  1.0005256527229589E+000  5.7424258939650672E+000
       H  1.5946646599911827E+000  2.2739586595938568E+000  5.7345985743950463E+000
       O  1.8428786267499078E-001  2.6528477369229111E+000  7.9432035827728207E+000
       H  8.7992688321024470E-001  2.7505745817555249E+000  7.3128705581079032E+000
       H -1.4802517890474229E-001  3.4868760447350495E+000  8.0003928918705256E+000
       O  2.3988914874610692E+000  1.4461107820658707E+000  9.6605487669355679E+000
       H  3.0666924132375768E+000  1.9353813983877712E+000  9.2341508678211675E+000
       H  1.6939950147716298E+000  1.9922607098772411E+000  9.5457692711037794E+000
       O  8.6449330965729237E-002  2.6932322616767643E+000  1.1105804889772774E+001
       H  2.6806896783305395E-001  2.7201275175154689E+000  1.0228497788095208E+001
       H  1.5519702323796056E-001  3.5883599435147664E+000  1.1353178165866641E+001
       O  2.1736997045256428E+000  1.1689320106393213E+000  1.2597201871157029E+001
       H  3.0440286549910187E+000  1.5411391308922291E+000  1.2585318419139885E+001
       H  1.7262227045967498E+000  1.6457846398724705E+000  1.1845405093928674E+001
       O -2.7101526390065991E+000  6.7799843674901021E+000  5.1565067607539827E-001
       H -2.3847315049454267E+000  7.4412345093766357E+000  1.1840979388337296E+000
       H -3.1564594601361002E+000  7.3540324447732752E+000 -1.8894781683663767E-001
       O -2.3224512881354062E-001  4.9157557968613359E+000  2.5549061800746768E+000
       H  3.6305213808696279E-001  5.4942071128643386E+000  3.1376135180785285E+000
       H -1.1574893163913207E+000  5.2248577292608287E+000  2.8163722114950449E+000
       O -1.8927718662880491E+000  6.3782358046069882E+000  4.5221955508356420E+000
       H -2.8523126873088169E+000  6.1682339444570795E+000  4.7112482004211005E+000
       H -1.9805744622261463E+000  7.2164263059960296E+000  3.9285731012629692E+000
       O  3.1435411758908138E-001  4.7121136524196228E+000  6.3039540708927451E+000
       H  1.0637429067985475E+000  5.4711187297426820E+000  6.3551183488484941E+000
       H -4.4216175519174705E-001  5.1337421875167788E+000  5.8191929307739079E+000
       O -2.6419061136612396E+000  7.1512632726904419E+000  7.5936208652743789E+000
       H -3.5415664229918216E+000  6.6566802566785368E+000  7.6079112218361269E+000
       H -2.7384261632586320E+000  7.8229324994515546E+000  8.3102970371998239E+000
       O -6.5137265824625490E-001  5.4299572070326523E+000  9.2493136492850336E+000
       H  1.4549369847061105E-001  5.8195683553648001E+000  8.8367057049213411E+000
       H -1.3633929823212625E+000  5.7334371344757269E+000  8.6677662659652359E+000
       O -2.6420605088300113E+000  6.4476567797196545E+000  1.1388742941476574E+001
       H -1.7853191576212704E+000  6.1605431099774934E+000  1.1173384311444075E+001
       H -2.5169543914396937E+000  7.3838088656383336E+000  1.1481303622173568E+001
       O  8.8358276140171013E-002  5.2456167434991423E+000  1.2679112484431117E+001
       H  8.5788672722299264E-001  5.7296173759242466E+000  1.2433146527912669E+001
       H -5.7620995002769271E-001  5.5869581498518723E+000  1.2087692618339124E+001
       O  4.9592547052267726E+000  2.4514190914996412E+000  5.2439307187353834E-001
       H  5.5472076049250711E+000  2.0838173124323403E+000  1.2729550160224505E+000
       H  4.8137606536441968E+000  3.3760522776412794E+000  7.7622101750979122E-001
       O  6.6590473750557972E+000  1.3024587808483385E+000  2.6509927279595353E+000
       H  7.5113083636556297E+000  1.6561681890567925E+000  2.8240520959238617E+000
       H  6.1187752312764063E+000  1.6548278730823418E+000  3.4051928746659597E+000
       O  4.0756464905219207E+000  2.6624851782510195E+000  4.0871978483455713E+000
       H  4.8927041725974885E+000  2.2052363032080775E+000  4.1218908252014801E+000
       H  4.3352310048654825E+000  3.6364023285395652E+000  4.3369303651480147E+000
       O  6.9260805388347562E+000  1.2289387711803605E+000  6.4990795334027176E+000
       H  7.6799165104498339E+000  1.7104811220699268E+000  6.9372268213664769E+000
       H  6.1213773538720799E+000  1.7762779835729017E+000  6.7383588209428442E+000
       O  4.6801955360437146E+000  2.7173090274107281E+000  8.2635625966239772E+000
       H  5.2744767092260583E+000  2.1066137485621423E+000  8.6679038462628206E+000
       H  4.9318818074455519E+000  3.5881688742199724E+000  8.7000877165447239E+000
       O  6.6071705319899809E+000  1.5248952690490560E+000  1.0252959380211848E+001
       H  7.5561335007777100E+000  1.8258410191299101E+000  1.0266732020427238E+001
       H  6.1945473927523080E+000  2.1183073308664020E+000  1.0869521570491857E+001
       O  4.9203997446167627E+000  2.5841575349688535E+000  1.2515187385396148E+001
       H  5.1620282839578211E+000  2.0346653257978460E+000  1.3191822218648017E+001
       H  4.8836047536024214E+000  3.4795634631017953E+000  1.2929764655297317E+001
       O  7.3564936135779346E+000  6.6970006663338288E-001  1.3694024580252329E+001
       H  8.1484022397932829E+000  1.1956166324804069E+000  1.3906458607390363E+001
       H  6.6063313190714226E+000  1.3648152467126606E+000  1.3684457023211754E+001
       O  2.4701619719895591E+000  6.4986115190988230E+000  6.9136415790310390E-001
       H  2.8556027886035311E+000  6.4543521305102614E+000 -2.0258253629932940E-001
       H  2.5400175883147704E+000  7.5034057004842358E+000  9.4405628131379060E-001
       O  4.4039881184704868E+000  5.0230834089599821E+000  1.9650437655053086E+000
       H  4.9068924166820072E+000  5.7508105353657815E+000  1.4015062862874301E+000
       H  3.4125751498372692E+000  5.2402545426319733E+000  1.8596498330027549E+000
       O  2.1175911390648672E+000  6.3208416590943415E+000  3.8762280254652457E+000
       H  2.6864622172762735E+000  5.9292935545661223E+000  3.1276344742926088E+000
       H  2.0121594644498910E+000  7.2739255445867661E+000  3.6119601249979323E+000
       O  4.3523679820564061E+000  5.1336730584821435E+000  5.9207810294114092E+000
       H  3.4785279248110954E+000  5.5048487801488353E+000  5.6294068411421065E+000
       H  4.1384062085771358E+000  4.2887785773528826E+000  6.4054102296210669E+000
       O  2.0896086061082779E+000  6.5855118542515587E+000  8.2639021885044990E+000
       H  2.1417468966696456E+000  6.8676247162809165E+000  9.1528315825367219E+000
       H  2.1419769012724781E+000  7.3640801595671315E+000  7.8152303899338316E+000
       O  4.3531654667074129E+000  5.0566998777800629E+000  9.7660987430791835E+000
       H  5.1531144453588613E+000  5.5904682758060380E+000  9.8903150854427206E+000
       H  3.8941025698222411E+000  5.5143228309653356E+000  9.0525199300373647E+000
       O  2.2229784135190616E+000  6.7703926855780576E+000  1.1267664807745961E+001
       H  3.1156500113133601E+000  6.4172364412701830E+000  1.1549026719977139E+001
       H  2.2282305596761298E+000  7.6907655569100228E+000  1.1561967189243514E+001
       O  4.4394221807600172E+000  5.5766437294747027E+000  1.2887953842775516E+001
       H  5.2213334659115320E+000  6.2386061520829168E+000  1.3030722708691920E+001
       H  4.6684744199736601E+000  5.1132024332296400E+000  1.2104047167307012E+001
     &END COORD
     &VELOCITY
         1.3337385425633429E-004  1.4198893487471755E-004 -3.8478841035349477E-005
        -4.3036438312578568E-004  3.9420605713100536E-004  3.9887945139804697E-005
         1.7423514965611473E-005 -2.9071225985794521E-004  1.5492902062929923E-004
        -9.7649578864319691E-005 -1.5404256265621612E-004  6.2877782366021877E-005
         9.4805320459719782E-004  7.2510074998608930E-004 -8.3227352259058302E-004
         7.9537105593849007E-004 -2.0146719970748781E-004 -1.7927679125607997E-004
         6.8100920883987690E-006  1.8549077234916058E-004 -5.9664270722517818E-005
         4.3500659266933103E-004 -6.4234754188882085E-004 -3.6457974493575308E-004
        -3.9269334054841336E-004 -1.3895908243801301E-003  5.4973366627398710E-004
        -1.5086759940874993E-004  7.0092019884017588E-005 -1.3983050466410106E-004
        -2.3440845098048995E-004 -1.9766505854682486E-004  4.4965815428832482E-004
         8.6725268058607285E-004 -4.0198137022641098E-004 -7.8531922568851620E-005
        -1.0333898256842593E-004  1.2742890812260482E-004  1.2161184087698666E-004
         3.2032825902536153E-004  1.2031756661399556E-005 -3.9490886463294512E-004
         2.5214362516616290E-004 -5.5320572906020866E-004 -1.5392312417298600E-004
         2.1442465586283976E-005  5.9542862820992320E-005 -1.2973677584570138E-004
         1.7913996412410467E-004 -6.6292250572829901E-004  1.6969709728647826E-004
        -9.5042164550774232E-004  1.2558975727372999E-005  4.2622716519075999E-004
        -2.3715478105511401E-005  3.8269722267798273E-005  1.0691104424550934E-004
         2.9169727948835346E-004 -2.9153326997040374E-004 -4.7736354632518389E-004
        -1.3285815517502069E-004  3.3640089649726937E-004  6.5832404878228079E-004
        -6.0603537818017317E-005 -7.7267470138333162E-005 -8.3981631139048231E-005
         8.8564904689150659E-004 -2.1079149270855190E-004  7.2987182833045644E-005
        -8.6048207658147183E-004 -3.2192270426597219E-004 -3.8153871517516177E-004
        -3.1115401194087422E-005  5.7875144198216915E-005 -8.2596906150681407E-005
        -2.3321170304129731E-004  1.0711669370316862E-004 -2.4875204418380899E-004
         2.0805336351195075E-004  3.3619862578936451E-005  3.4279711927333805E-004
         1.1166348111852721E-004  3.7142486000995251E-005  3.4238751883448419E-005
         4.5505446501512361E-004 -2.6437591310111562E-004 -1.9417411958096167E-004
        -1.1835824488118302E-003 -1.7241224053663802E-005 -2.2005906587538359E-004
         1.3068472087090478E-005  2.8978780244435077E-005 -8.4528912846591680E-005
         3.7946116316913970E-004  5.4060308379629050E-004 -1.8082639269262514E-004
        -6.5239063460600477E-004 -4.6423616237711515E-004  2.3922039639426152E-004
         5.8249168897167361E-006 -4.8025115811804613E-005  4.2151866115705831E-005
        -4.9890307309918499E-004 -1.0321684195867259E-004  9.4297395558110418E-005
         5.2364898496909916E-004  2.8940473337475025E-004 -1.6878095520967828E-004
         1.5231361506300584E-005  4.3635494861073748E-005 -9.9549433249500124E-005
        -3.4623258754257598E-004 -1.1910160815136574E-004  3.6904186105744005E-004
         1.4998455574739770E-005 -3.2120563267927895E-004 -7.7502948046348024E-006
        -9.7856269507757440E-005  1.1112163032231246E-005  4.4352689482170235E-005
         9.5266621673268347E-004  1.7198826881484479E-004  1.5168326818728637E-004
        -4.2022472685639047E-004 -1.5570087113118034E-004 -2.2253597059907797E-006
         1.3001794965268171E-005  3.2345830898132398E-005 -8.9148915141885348E-005
         3.5405837100665279E-004 -5.7284484360003974E-004  1.9269169655537067E-005
        -9.4931534314011176E-004  1.2519627137703860E-003  4.1003384305100089E-004
        -7.7760418254114083E-005 -7.7979192707118539E-005  1.6382048715234473E-005
         6.1012425171750250E-004  3.1356312952401927E-004 -2.7212087881119899E-004
         4.8294607964993204E-004 -1.5379119276583181E-005  3.8301430708377056E-004
         6.3354805941700371E-006  2.2862432591543948E-005 -5.5836322546888374E-006
         3.6418630581321385E-004  7.8240781768805625E-005  4.5513444085372863E-004
        -8.1545940967935304E-005  3.3593064616837636E-004 -1.3381278258129542E-008
         5.8061582952479812E-005 -1.0100499015553277E-004  5.4615131008066242E-006
         4.1522343649532241E-004  1.5069339787036613E-004  1.1929043766055915E-005
        -6.9694249249319497E-004  5.5743703978025991E-005  2.3996194170647424E-004
         4.0843608359490763E-005 -1.2989332670874305E-004 -1.9747896388126346E-005
        -4.9328682923372488E-004  7.7321551946173486E-005 -9.5160210471780961E-006
         1.1555067863420510E-004  1.4051407684919420E-003  4.8322655100596390E-004
         6.6370091005664474E-005  8.3558394895771331E-005 -1.2832874956968126E-005
        -4.7999260186015741E-004 -6.0986652418859491E-004 -4.0951216816236842E-004
        -5.8355216436723021E-004  2.0566816148199647E-004  4.1693910503364614E-005
         1.1956486334467773E-004 -1.4917962121193751E-004 -1.1581460743291225E-006
         1.4084943866141304E-004 -3.9890334742792767E-004 -4.2649107173957596E-004
        -1.2416191829190082E-004  1.0034751684313398E-003  9.3724382133528460E-005
         4.5656375096519035E-005 -1.8714465269482952E-005  3.7046181378855095E-005
        -4.6283023627528892E-005 -2.6392593164677809E-004 -1.0889165970964344E-004
        -7.9674742802202060E-004  5.0284654112755459E-004  3.2069800916867804E-004
        -5.8971309435764943E-005  7.7485743078054469E-006  3.8588237686066882E-006
         4.8389486747674382E-004 -6.7197841786308815E-004  4.0236832944449985E-004
         1.0320633226173688E-004  5.3908190268789824E-004  4.5622753104641877E-004
        -1.0277695007116359E-004 -9.1687472296589958E-005  6.4618796169318716E-005
         7.7552793625374568E-004  1.1611255594013958E-004  3.1749637116740791E-004
        -5.4144672840414094E-004 -4.7112142292802831E-005  1.1128848801416964E-004
        -7.6302736658361023E-005 -3.5810141952705637E-005 -8.6306295363619152E-005
        -1.2237615094219458E-004  3.0534930819914503E-004  4.4093837550268850E-004
        -6.6740664123173543E-005 -5.7448260746688943E-006 -3.0398048652207222E-004
        -1.2318562673917038E-005 -8.0614541821154252E-005  1.3675739710211120E-004
         8.5359907967405210E-004  4.8949926505274745E-004 -5.1616603933354887E-004
        -1.8484162732196064E-004 -4.8543697370933765E-005  1.5624718568583258E-004
        -1.0268807188378997E-005 -4.2316776130149935E-005 -9.6529716735572880E-005
        -5.6937105508362410E-005  1.0444663278684183E-004 -1.3330916844865771E-004
         2.9194630652033533E-004 -8.3586977258986116E-004  2.3551670457700358E-004
         7.4363619242028388E-005 -2.5146659202374310E-005 -2.7960875382533764E-005
         9.1962278885299403E-004 -2.7905021213426527E-004  3.5724834979795011E-004
        -1.2225776348542613E-004  4.0951205401377290E-004 -2.4818587081192766E-004
        -3.9409130992429552E-005 -2.1778571818302849E-005 -6.2525430957726321E-006
        -1.8189045793356835E-004  5.0958634203934651E-005  1.4287635890288934E-003
        -1.8145553367365053E-005  3.7758445716661450E-004 -8.7842753774506092E-004
        -7.1228394152543289E-005 -1.9857259630764323E-005  4.2015835631359732E-005
         8.2403800977069426E-004  7.4451578554270495E-004  1.2103203948200735E-004
        -2.1254562979176414E-004  3.6947887094211272E-004 -4.0365295259249702E-004
         5.5768846646216707E-006 -3.9510744509198445E-005  7.9440652487619949E-005
         5.8772978067605489E-004 -6.1624941099594347E-004  1.5920445342613705E-004
        -2.6907911026454481E-004  8.3834416030384234E-004  5.4861806898303604E-004
        -1.7693883025189571E-004 -1.0530398993889234E-004 -9.3968772116082312E-005
         1.2453393583514534E-003  1.0113471837442701E-003  7.6259891496748618E-005
        -1.2402618969669632E-004 -2.3988631026745138E-004 -5.3237319865449210E-004
     &END VELOCITY
     &KIND "H"
       ELEMENT "H"
       MASS  2.0141019999999998E+000
     &END KIND
     &TOPOLOGY
       COORD_FILE_NAME ice_d20relaxed.xyz
       COORD_FILE_FORMAT XYZ
       NUMBER_OF_ATOMS 96
       MULTIPLE_UNIT_CELL 1 1 1
     &END TOPOLOGY
   &END SUBSYS
 &END FORCE_EVAL
