 # Version information for this restart file 
 # current date 2026-02-28 22:06:35.537
 # current working dir /Users/mackenziehenley/cp2k/D2O_ice/CP2K
 # Program compiled at                                       2025-01-01 12:26:53
 # Program compiled on                                                          
 # Program compiled for                                                    arm64
 # Source code revision number                                                  
 &GLOBAL
   PRINT_LEVEL LOW
   PROJECT_NAME "Titan_Ice_D2O_Quantum"
   RUN_TYPE MD
 &END GLOBAL
 &MOTION
   &MD
     ENSEMBLE NVE
     STEPS 1000
     TIMESTEP  9.9999999999999989E-001
     STEP_START_VAL 980
     TIME_START_VAL  9.7999999999999181E+002
     ECONS_START_VAL -3.7213938853219747E+002
     TEMPERATURE  9.4000000000000000E+001
     &AVERAGES T
       &RESTART_AVERAGES
         ITIMES_START 1
         AVECPU  7.0531918132652720E+000
         AVEHUGONIOT  0.0000000000000000E+000
         AVETEMP_BARO  0.0000000000000000E+000
         AVEPOT -3.7290875178583713E+002
         AVEKIN  7.0296126259744163E-001
         AVETEMP  1.5577357556920442E+003
         AVEKIN_QM  0.0000000000000000E+000
         AVETEMP_QM  0.0000000000000000E+000
         AVEVOL  7.0202309426947795E+003
         AVECELL_A  1.7075565336754675E+001
         AVECELL_B  1.7075565336754675E+001
         AVECELL_C  2.7801650867013464E+001
         AVEALPHA  9.0000000000000000E+001
         AVEBETA  9.0000000000000000E+001
         AVEGAMMA  1.1999999999999999E+002
         AVE_ECONS -2.1828503740823845E+002
         AVE_PRESS  0.0000000000000000E+000
         AVE_PXX  0.0000000000000000E+000
       &END RESTART_AVERAGES
     &END AVERAGES
   &END MD
   &PRINT
     &TRAJECTORY SILENT
       &EACH
         MD 1
       &END EACH
     &END TRAJECTORY
     &VELOCITIES SILENT
       &EACH
         MD 1
       &END EACH
     &END VELOCITIES
   &END PRINT
 &END MOTION
 &FORCE_EVAL
   METHOD QS
   &DFT
     &SCF
       MAX_SCF 40
       EPS_SCF  1.0000000000000001E-005
       IGNORE_CONVERGENCE_FAILURE T
       &OT T
         MINIMIZER DIIS
         PRECONDITIONER FULL_SINGLE_INVERSE
       &END OT
     &END SCF
     &QS
       EPS_DEFAULT  1.0000000000000000E-010
       METHOD PM6
     &END QS
   &END DFT
   &SUBSYS
     &CELL
       A  9.0359999999999996E+000  0.0000000000000000E+000  0.0000000000000000E+000
       B -4.5179999999999980E+000  7.8254055485961880E+000  0.0000000000000000E+000
       C  0.0000000000000000E+000  0.0000000000000000E+000  1.4712000000000000E+001
       PERIODIC XYZ
       MULTIPLE_UNIT_CELL 1 1 1
     &END CELL
     &COORD
       O  2.2063890853737114E+000  2.5772865477228910E+000  1.6160553591606319E+000
       H  1.8768204554065937E+000  1.5699099301694575E+000  1.3367274229387900E+000
       H  2.5582077808924857E+000  2.7520078786080906E+000  2.6386939914239234E+000
       O  1.6792573903372128E+000 -1.0749402809981183E+000  3.9723178664969003E+000
       H  7.3545874709324299E-001 -1.1801011514605400E+000  4.6650994003964161E+000
       H  2.1339501762977044E+000 -1.8767925545694548E+000  3.8601090040169428E+000
       O  8.2733595153992678E-001  3.3691635448087545E+000  3.5816630398646812E+000
       H  2.6715033955512740E-001  2.6661839453934006E+000  2.8406582219538148E+000
       H  1.1662883728573872E+000  4.1777632978709338E+000  2.7859689298173018E+000
       O  3.0904823743691883E+000  8.2723572458565553E-001  6.1449516937556590E+000
       H  2.4907322801313110E+000  5.5002136140396740E-001  5.6352596141061317E+000
       H  3.9947750792973995E+000  3.9437113497648474E-001  5.8429960241660472E+000
       O -3.2660446225750178E-002  4.0030738682850640E+000  9.9869053240708183E+000
       H -7.1831618102725181E-001  3.3742724704859777E+000  9.5221787834067442E+000
       H  7.5991686141595993E-001  3.5146657544887803E+000  1.0290970149627283E+001
       O  2.3410053775454798E+000  1.4806241775549869E+000  9.8138537916383441E+000
       H  1.9247340943714155E+000  2.1843069569116462E+000  9.5168219898913069E+000
       H  3.0493959002610738E+000  2.3570067782992283E+000  1.0476494766308038E+001
       O  2.6710445128025491E+000  4.2601613872263577E+000  1.0891689787704220E+001
       H  3.1475742771673234E+000  4.4638117445985612E+000  1.0168634566038106E+001
       H  2.4669174055883891E+000  5.0940762625364817E+000  1.0990923442048176E+001
       O  3.6861470427226171E+000  2.4082755274147747E+000  1.3463327939834405E+001
       H  4.0097501473770780E+000  3.1322916653106581E+000  1.3757677263907606E+001
       H  3.1428648285322294E+000  2.2686914746007636E+000  1.4362015740783207E+001
       O -2.5256611958065185E+000  7.4471815005765372E+000  1.2258984085246402E-001
       H -1.9983784854436113E+000  6.8308900887863180E+000  2.5776753579880688E-002
       H -2.0169053843387426E+000  8.2387486050171717E+000 -2.6288257726294006E-001
       O -1.9199214501689301E+000  4.4689775672787668E+000  1.1163372184420632E+000
       H -8.4843115392108304E-001  4.7232832876672113E+000  1.1546579772077927E+000
       H -1.6639393019781057E+000  3.6384634259291468E+000  1.6470237504561653E+000
       O -2.2528834523777972E+000  3.2471269361599009E+000  6.5816394066717105E+000
       H -2.5750963364981851E+000  2.7335231234120689E+000  7.3350561610181639E+000
       H -2.9938367445779490E+000  2.7921127475635021E+000  6.2586711453847901E+000
       O  2.0457640413889320E+000  4.9761755627363833E+000  6.0778239446260169E+000
       H  2.8220076230330564E+000  4.3819819731116016E+000  6.1349736225975784E+000
       H  1.5581717774332957E+000  4.8696906919421092E+000  6.9658799319612266E+000
       O -4.9853488294189683E+000  7.8392360527063314E+000  7.6635284923719906E+000
       H -4.1901327206327110E+000  8.3642228573212236E+000  7.7655029242319369E+000
       H -5.2672729270574301E+000  8.0547342010559344E+000  6.5646236809113274E+000
       O -9.3713894297911615E-001  6.7233293985556974E+000  7.9976437881304330E+000
       H -6.9166117119855375E-001  6.1671449472539823E+000  7.3002330573428953E+000
       H -1.9845561774316667E+000  7.0450342688326577E+000  8.3385744142049898E+000
       O -3.6164659261224807E+000  6.3877931444560705E+000  9.7006043324012765E+000
       H -3.9894899382065896E+000  5.4950353099322813E+000  9.1393121501960444E+000
       H -4.5207729111199209E+000  6.8187762382208854E+000  1.0311590295737998E+001
       O -3.3466522862787096E-001  5.8548751736713598E+000  1.2777870046929102E+001
       H  1.1172810024899152E-001  5.3180829092167459E+000  1.2274340342813861E+001
       H -1.1798556160713765E+000  5.3619958554346745E+000  1.2840327696007744E+001
       O  3.9940846894712672E+000  5.1814012579884761E-001  2.0161128132734158E+000
       H  4.4183772530567769E+000  1.4257005992164598E+000  1.8320223871043149E+000
       H  3.5484859804005282E+000  1.0864084225828563E+000  2.7375911059765268E+000
       O  7.9467492847225820E+000  7.1891458596796010E-001  1.3883739783860019E+000
       H  8.1197551938148660E+000  7.2264033130749239E-001  2.4847343585972821E+000
       H  7.8171246156268896E+000  1.6505884411423226E+000  1.6392454269017314E+000
       O  5.1677941793423319E+000  2.2275027626604622E+000  3.3343790269759488E+000
       H  5.2188928686738185E+000  3.3204364093372516E+000  3.3814453359458114E+000
       H  5.8555546935633380E+000  1.9396433803874489E+000  3.8016381350915784E+000
       O  7.7759202734113524E+000  1.2238358419818962E+000  4.6691294709515585E+000
       H  7.3025681557728355E+000  1.2438474848490038E+000  3.8667020469818087E+000
       H  8.1917372940657192E+000  2.2252591516417861E+000  4.7248051405769091E+000
       O  5.6591496296784820E+000  1.9820982952175190E+000  9.5331922397473416E+000
       H  5.2441244313975526E+000  2.2181056148585561E+000  8.6880964514242116E+000
       H  6.0845346507964209E+000  2.7881564273125519E+000  9.9515349660045445E+000
       O  8.5153813377335226E+000  9.4652408899573937E-001  1.0963964878133313E+001
       H  7.8618139189269014E+000  9.2706241447420734E-001  1.0430457242127515E+001
       H  9.0313191855863124E+000  8.0705308912322049E-001  9.9779711127502608E+000
       O  6.7501956896414272E+000  4.2538897854273623E+000  1.1362457313834639E+001
       H  6.4122202098813634E+000  4.7137300986300872E+000  1.0652766617524756E+001
       H  7.8038243301615413E+000  4.2165936284287140E+000  1.1447507336038061E+001
       O  6.2819599411725404E+000  1.4192881331177352E+000  1.4513739252473254E+001
       H  5.7619386445950598E+000  1.6460656262035263E+000  1.3731583116359152E+001
       H  6.8947500087813145E+000  1.3390101442673477E+000  1.3708232054717516E+001
       O  1.3876977125080956E+000  6.7780179587147948E+000  4.3347973547220908E-001
       H  9.8554018273432509E-001  7.5339155195175316E+000 -4.9852440049034809E-002
       H  2.0852259733884204E+000  7.1297338474735703E+000  1.1739290874546227E+000
       O  4.9439045171721565E+000  5.5107592173460480E+000  1.8207882688382915E+000
       H  5.1266448757210767E+000  6.3507324404398808E+000  1.4816032185309718E+000
       H  4.6384205007090307E+000  5.5351413857608183E+000  8.1963821618951349E-001
       O -4.9024817714151520E-001  6.3106402366210181E+000  4.3204924700286638E+000
       H  2.8293897916886490E-001  5.7090887326633855E+000  4.1532216515476437E+000
       H -2.2936525927489579E-001  6.8975229422967921E+000  3.5541077916038244E+000
       O  2.2372690040085761E+000  5.8173180507311280E+000  3.9292241091843936E+000
       H  2.5737712031428650E+000  6.3762833311104794E+000  4.5202810395642690E+000
       H  2.8961854114526675E+000  6.1153669116369924E+000  3.1802432880482221E+000
       O  1.7048214677327183E+000  6.3926084676467312E+000  8.2292912856803824E+000
       H  1.7025041043871045E+000  7.1979226985553302E+000  7.7606901255659571E+000
       H  1.0227763608782572E+000  6.2522363114924628E+000  8.9245971568699858E+000
       O  3.8796545304622851E+000  3.8507829072954416E+000  7.8409420922225657E+000
       H  3.3771006744276502E+000  4.1942775169954061E+000  8.3575396198039797E+000
       H  4.6362641653777867E+000  4.5117461173299986E+000  7.7412412159077375E+000
       O  1.2163150464941768E+000  7.6707186560276099E+000  1.1664512528432200E+001
       H  1.5337188915352749E+000  8.6706051332399063E+000  1.1910550381554188E+001
       H  2.9862351574388019E-001  7.7149197510355796E+000  1.1937693157483569E+001
       O  4.2181635299380398E+000  6.1020783793341264E+000  1.3575949532307963E+001
       H  4.9002658818357236E+000  5.3658813959603888E+000  1.3178932376642466E+001
       H  4.9961181117033648E+000  6.8784671012278293E+000  1.3795658845600119E+001
     &END COORD
     &VELOCITY
         1.1689352802906968E-004 -3.6981883684213904E-004 -1.7995806810651411E-004
        -6.6246512389348759E-004  7.5866126171530730E-004 -6.0040149874959477E-005
        -1.7048504668618829E-004  1.2538691318659193E-003  9.0310146613184071E-004
        -1.1478252408783998E-004 -2.7500339427668846E-004  2.5440177223792631E-005
        -1.9512001501326684E-003  4.8370411457346232E-004  6.1342727761777528E-004
         1.1584129396938038E-004  7.3264111334155296E-004  1.7442370148474472E-004
        -1.3706148442334457E-004  1.0206104935674127E-004 -3.5360849180924041E-004
         7.8673675341300940E-004  1.4798212250707946E-003  9.2023018480345072E-004
        -4.4920772281064724E-004 -1.4190918631587911E-003  2.8741221849275778E-003
        -2.4561117862510764E-005 -5.4673872582268956E-004 -6.3077273374272471E-005
        -1.9870604186798834E-003  9.3957756497664189E-004  1.7752270901190542E-003
        -8.2671021662050065E-004  1.1928050240024672E-003  2.2106740093708437E-003
        -1.4931568936847785E-004  3.1048531059950661E-004  1.7611221482239964E-004
         6.1551868051815345E-005 -7.9589769816382433E-004  1.5533207687525854E-004
         8.5957782104172185E-004 -8.1391294016209842E-004  7.6614548822399008E-004
         3.1520884229434048E-004  2.6059471778794102E-004 -6.9835482196654403E-005
        -2.0942405253621685E-003  9.8163202540469448E-004 -9.3009954539109902E-004
         1.7415028514766642E-003 -2.9737954478384674E-004  1.5944469820720962E-003
         1.7590589809393257E-004 -2.8382365796690166E-004 -5.6853027156713313E-005
        -1.5564125915649800E-003  2.8178671365240338E-003  1.3653645960227073E-003
         1.6986585347644812E-003  1.2415937448535099E-003 -1.6384164137264881E-003
         5.9656018975912136E-005  1.4815289403412367E-004 -3.1237653618131775E-006
        -1.8225864417056729E-003 -9.2570544042817567E-004  1.0650606334554240E-003
         1.0629880527023899E-003  1.9444840673832463E-003 -1.3569921435695781E-003
         1.7092234136611525E-005  4.7255324669863186E-004 -2.7295583924933319E-004
         1.6021062482992347E-003 -4.2949762844039056E-003 -1.2092717136434092E-004
        -2.3931238107883549E-003  4.7411245333058548E-004  1.6929239573883209E-004
         1.2880073854502853E-004 -3.7010048133385856E-004  1.1408836932158804E-004
        -2.2230727698909387E-003  6.9104044077269728E-004 -1.4543346927697078E-003
        -2.2236260287420194E-003  1.6536572491503449E-003 -9.9260573377828892E-004
        -2.1135418795333617E-005 -2.8207019605518954E-004  5.5037494233511105E-004
         1.4858698750388718E-003  1.6079400880640233E-003 -2.8377605616238472E-003
        -8.3389784090477886E-004  1.6161961534176485E-004 -1.1496671890381390E-004
        -2.0667204667070292E-004  3.4225488939384281E-004 -2.6612553659228160E-004
        -2.0935751351447420E-003 -2.4909342762938582E-004  1.9846381256038636E-003
         3.0205124753584062E-003 -1.5059662196713079E-003 -6.6427710339514836E-004
        -3.7235134644416729E-005  2.2440293157320295E-004 -2.5702609933589419E-005
        -6.1200547511231179E-004 -1.3955222741778308E-003  1.5944441890012894E-003
        -1.3827096086008056E-003 -9.4905250471850498E-004 -8.3211465876473765E-004
        -1.4389473833576120E-004  5.2288463143983835E-005 -6.3393477811028137E-005
         7.1067691899220626E-004 -1.4310508590393860E-003 -2.2645082925804197E-003
        -1.3756350960890205E-003  9.5320865808247912E-004  8.7131266917066155E-004
         4.6959692259507539E-004 -4.3990359345330875E-004 -2.1943745796487252E-004
        -1.5069222179090974E-003  1.9066769897413455E-003  1.4385609666654436E-003
        -7.5313357340128220E-005 -8.5981621529897614E-004 -8.7423936585997943E-004
         7.7458921725619145E-005  2.4016435846811954E-004 -3.2605162008737337E-004
        -1.4864976839630718E-003 -1.4627722769211568E-003 -3.4055582848591928E-004
        -1.8219150886506240E-004 -1.1766888965300964E-003 -1.4064162101577525E-003
         3.1442704704666479E-004  1.0755457737904537E-004 -1.5738145968231395E-004
         3.0952159796473257E-004 -2.7245161677637423E-003 -8.7553115359220181E-004
        -1.2714170941501262E-003  6.3206876669627500E-004  1.2930281774688433E-003
         3.1075795010881388E-004 -2.3195115638145712E-004  6.5363355282447834E-005
         5.8021727533477782E-004 -2.6297096576831814E-004 -1.4675087859936068E-003
        -7.5216594387575190E-005  1.3118407742478853E-003 -5.1619604464205157E-004
        -3.8890167556846931E-004 -3.7615646526408528E-004 -3.0769327598333731E-004
         7.1600648532777985E-004  2.1420734986624924E-003  7.7090577955398539E-004
         3.2320484203188829E-003  2.0646652560868471E-004  1.2237701724738548E-003
         2.4736572101955079E-005  2.0293753677027868E-004 -3.0608546564659110E-004
        -1.5527592494672465E-003 -2.7433050166623479E-003 -5.4719454825720448E-004
         2.5182505720740146E-003  1.5605759574648479E-003  2.6729934972184138E-003
         8.9116291535484466E-005  4.7259812262556662E-004  4.2040076218759610E-004
        -1.2079938284117219E-003 -1.3446293782085959E-003 -9.5233664588105732E-004
         4.5183891784885159E-004 -1.5250149122605244E-003  3.9792506275147929E-004
         1.3590948830341585E-004  5.5343329568810883E-005  5.2400224934704581E-004
        -8.5283931117386856E-004 -2.5661261787498656E-004 -7.4894336075514718E-004
         1.1054397724159864E-003 -1.7523484594882149E-004 -2.4279049324168788E-003
        -2.3217881949058790E-004  5.0348608870521723E-005  1.3032878741549918E-004
         1.1397866665687028E-003 -3.7173613651860611E-004 -7.0498872259928708E-004
         1.1023174625914151E-003  7.8931164391368486E-005 -1.0387605450167872E-003
         1.6277427140022168E-004  3.2973013438453836E-004  7.1049762814971468E-004
         1.1794094557139984E-003  3.4116339825011530E-004 -3.3220424006722973E-003
        -1.1462096773781458E-003  9.5577823385323355E-004 -2.3184968065505375E-003
         4.4755622628220440E-005  3.4363882135011369E-005  6.8943023878790906E-005
        -1.6058273029509846E-003 -7.4430368361765519E-004 -7.7216019739184336E-004
         5.2161605992832719E-004 -1.6366625926988840E-003 -5.8293917316539032E-005
        -5.5126619640964866E-006  4.8723929822447456E-004 -2.0185019404927890E-004
         8.9563397740053080E-004 -2.3160189317362188E-004  1.6515432677988856E-003
        -1.5791934263227956E-003 -1.3125182789214982E-003 -2.0549997409931653E-003
         2.6281408662428749E-004 -3.3846153964703963E-005 -1.8012543461482078E-004
        -7.9498453303670916E-005 -1.3699828538907921E-003  1.4297117543763363E-003
        -1.7933969167589709E-003 -9.5108885486922066E-004  2.5126079847116816E-003
         4.5730625183616367E-004  2.4089474585225760E-004 -4.2008290547290315E-004
         3.6850336590848104E-004  5.4527572719512401E-005  9.2508150068131120E-004
        -2.1586832853221858E-003 -1.6096663854177037E-003  1.9809601021105487E-003
        -2.5567775451278726E-004  4.9633289075465907E-005 -1.0688169381375986E-004
         3.9317319981203576E-004 -5.6565143084832503E-004  1.5884097461944537E-003
         1.4782856326146301E-003  1.6585585026845925E-004  1.1422993048972294E-004
        -2.1021210942259951E-005  5.6451912086548932E-005  3.0451924438291967E-004
        -1.0894325828800170E-003 -5.8069499383984634E-005 -5.5628235022745658E-004
         3.5581971659442717E-003  1.0274876014164842E-003 -3.4463418055642389E-004
         2.9279697004389515E-004 -7.6588760811299110E-004 -1.6405946231678133E-004
        -2.1238389955388418E-003  1.4458389554477512E-003  1.5781487462143819E-003
        -2.1205615924361392E-003  2.5013992279285017E-003  1.4567530699901104E-003
         1.0969581050268015E-004  7.8528384933417434E-005  8.5936541098219560E-005
         1.2528130917559055E-004 -1.9344159869139907E-003 -1.5497031068630106E-003
        -7.7484594646020028E-004  9.6906770979841936E-004  5.8656104708975265E-004
     &END VELOCITY
     &KIND "H"
       ELEMENT "H"
       MASS  2.0141019999999998E+000
     &END KIND
     &TOPOLOGY
       COORD_FILE_NAME ice_d20relaxed.xyz
       COORD_FILE_FORMAT XYZ
       NUMBER_OF_ATOMS 96
       MULTIPLE_UNIT_CELL 1 1 1
     &END TOPOLOGY
   &END SUBSYS
 &END FORCE_EVAL
