 # Version information for this restart file 
 # current date 2026-02-16 23:15:30.270
 # current working dir /Users/mackenziehenley/cp2k/D2O_ice/CP2K
 # Program compiled at                                       2025-01-01 12:26:53
 # Program compiled on                                                          
 # Program compiled for                                                    arm64
 # Source code revision number                                                  
 &GLOBAL
   PRINT_LEVEL LOW
   PROJECT_NAME "Titan_Ice_D2O_96"
   RUN_TYPE MD
 &END GLOBAL
 &MOTION
   &MD
     ENSEMBLE NVT
     STEPS 1000
     TIMESTEP  4.9999999999999994E-001
     STEP_START_VAL 980
     TIME_START_VAL  4.8999999999999591E+002
     ECONS_START_VAL -3.7215477377153161E+002
     TEMPERATURE  9.4000000000000000E+001
     &THERMOSTAT
       TYPE CSVR
       &CSVR
         TIMECON  9.9999999999999986E+001
         &THERMOSTAT_ENERGY
             1.2513639970780421E+000
         &END THERMOSTAT_ENERGY
         &RNG_INIT
 Wiener process for Thermostat # 1        1 F T F   3.7583581555281209E-01        1796893340.0        2080539822.0        4275752861.0        3656340404.0        2157680846.0        3137687376.0             12345.0             12345.0             12345.0             12345.0             12345.0             12345.0             12345.0             12345.0             12345.0             12345.0             12345.0             12345.0
         &END RNG_INIT
       &END CSVR
     &END THERMOSTAT
     &AVERAGES T
       &RESTART_AVERAGES
         ITIMES_START 1
         AVECPU  3.4415451122452598E+000
         AVEHUGONIOT  0.0000000000000000E+000
         AVETEMP_BARO  0.0000000000000000E+000
         AVEPOT -3.7334788162300168E+002
         AVEKIN  2.9928908544324717E-001
         AVETEMP  6.6321337247042209E+002
         AVEKIN_QM  0.0000000000000000E+000
         AVETEMP_QM  0.0000000000000000E+000
         AVEVOL  7.0202309426947795E+003
         AVECELL_A  1.7075565336754675E+001
         AVECELL_B  1.7075565336754675E+001
         AVECELL_C  2.7801650867013464E+001
         AVEALPHA  9.0000000000000000E+001
         AVEBETA  9.0000000000000000E+001
         AVEGAMMA  1.1999999999999999E+002
         AVE_ECONS -1.5207205904291214E+002
         AVE_PRESS  0.0000000000000000E+000
         AVE_PXX  0.0000000000000000E+000
       &END RESTART_AVERAGES
     &END AVERAGES
   &END MD
   &PRINT
     &TRAJECTORY SILENT
       &EACH
         MD 2
       &END EACH
     &END TRAJECTORY
   &END PRINT
 &END MOTION
 &FORCE_EVAL
   METHOD QS
   &DFT
     &SCF
       MAX_SCF 50
       EPS_SCF  1.0000000000000000E-004
       IGNORE_CONVERGENCE_FAILURE T
       &OT T
         MINIMIZER DIIS
         PRECONDITIONER FULL_SINGLE_INVERSE
       &END OT
     &END SCF
     &QS
       EPS_DEFAULT  1.0000000000000000E-010
       METHOD PM6
     &END QS
   &END DFT
   &SUBSYS
     &CELL
       A  9.0359999999999996E+000  0.0000000000000000E+000  0.0000000000000000E+000
       B -4.5179999999999980E+000  7.8254055485961880E+000  0.0000000000000000E+000
       C  0.0000000000000000E+000  0.0000000000000000E+000  1.4712000000000000E+001
       PERIODIC XYZ
       MULTIPLE_UNIT_CELL 1 1 1
     &END CELL
     &COORD
       O  3.9205403268869832E-001  2.5701086563312989E+000 -2.4624143396755710E-001
       H  1.2432174364540236E+000  2.0751381904689077E+000 -6.0459760596015777E-001
       H  4.9378030786137755E-001  3.2239878848521863E+000 -8.9350386979739505E-001
       O  2.9193411567198981E+000  1.0527877426514003E+000  2.4886370583716420E+000
       H  3.5497874192965679E+000  1.8631233367151034E+000  2.1131287294610881E+000
       H  2.3146095189057796E+000  1.6729287271854216E+000  2.9549215607497898E+000
       O -1.4605887158231691E-002  2.3215658986586747E+000  3.8140115028239503E+000
       H  9.2981874246587537E-001  2.0978393097526506E+000  3.3489017596618158E+000
       H -1.0525646575050457E-002  3.2728441199526892E+000  3.3868272419468934E+000
       O  2.5114456406085401E+000  2.0425862904793188E+000  5.6370805098250623E+000
       H  2.3997991014075044E+000  1.1057548363595917E+000  5.6569028481737202E+000
       H  1.5038672138940121E+000  2.2176055953774894E+000  5.7575775450879458E+000
       O  1.8268897969656470E-001  2.6147907953570457E+000  7.9396494975206977E+000
       H  9.4672766351490611E-001  2.8344824225128917E+000  7.2440486175501286E+000
       H -1.5316019729895111E-001  3.6165571481651617E+000  7.9926710248620054E+000
       O  2.4215737986331787E+000  1.4208457770132674E+000  9.6887561536522195E+000
       H  3.1217933173358614E+000  2.0323855932441552E+000  9.1999665063324709E+000
       H  1.6006129746849955E+000  2.1271928443463333E+000  9.4433363943090480E+000
       O  8.4434396543890428E-002  2.6635690319755221E+000  1.1111473946221428E+001
       H  2.7690230590056036E-001  2.7771703652313970E+000  1.0025396118175639E+001
       H  1.8407628488527572E-001  3.7092452020241593E+000  1.1292206023638633E+001
       O  2.1650617819224105E+000  1.1720931108405435E+000  1.2624333633546232E+001
       H  3.1139302801250683E+000  1.6718536908291959E+000  1.2595570247070267E+001
       H  1.8316124755875498E+000  1.7551396115065938E+000  1.1852488211129813E+001
       O -2.7061173246416197E+000  6.7576904227468066E+000  5.2632079065786475E-001
       H -2.4066796806476964E+000  7.4784835811239523E+000  1.1181790528094671E+000
       H -3.0992647307557490E+000  7.3694338835174102E+000 -8.5544447480912722E-002
       O -2.3072746841004391E-001  4.9077350527253589E+000  2.5442965618536770E+000
       H  2.7886083618406998E-001  5.5121899883740442E+000  3.1441088872222958E+000
       H -1.1156311595640431E+000  5.2793151298841234E+000  2.9223040086635912E+000
       O -1.8917498553172800E+000  6.3751123641081175E+000  4.5374912667818723E+000
       H -2.8231555487092912E+000  6.2058203626104165E+000  4.6347839826717641E+000
       H -1.9762650753537776E+000  7.1339536045528025E+000  4.0144663005163643E+000
       O  3.2987511308392042E-001  4.7146868663350885E+000  6.3042153911647141E+000
       H  8.8512355783963248E-001  5.4285735639659398E+000  6.2394737529091540E+000
       H -4.0200348833668537E-001  5.1914322547440097E+000  5.8782708949333324E+000
       O -2.6254867017050829E+000  7.1415489709593611E+000  7.6069613995788918E+000
       H -3.5098261601874041E+000  6.7597313556200422E+000  7.6092151910312129E+000
       H -2.8453522354158420E+000  7.8168288892631397E+000  8.2978002705730969E+000
       O -6.4320791831982604E-001  5.4122806454987638E+000  9.2569814548371774E+000
       H  1.1769594062487239E-001  5.8697751425509530E+000  8.7107927353306867E+000
       H -1.3508288858685533E+000  5.7979829637911582E+000  8.6183016975666416E+000
       O -2.6647017548104230E+000  6.4179934013281494E+000  1.1407948027152624E+001
       H -1.6730001918318318E+000  6.1067597282939259E+000  1.1104606478092784E+001
       H -2.3472707011585743E+000  7.4569923890698204E+000  1.1439033440104271E+001
       O  7.2389634264051761E-002  5.2363178241359956E+000  1.2690871871068802E+001
       H  8.8096078127733357E-001  5.8376853721284370E+000  1.2358910514837232E+001
       H -5.6751878563895719E-001  5.6202487355796649E+000  1.2015711656656038E+001
       O  4.9457833837568081E+000  2.4301126442839869E+000  5.0197328282341458E-001
       H  5.5149384542674982E+000  2.1307013272244859E+000  1.2429879595555988E+000
       H  4.8728493574117397E+000  3.3768405956494529E+000  8.7805260103777449E-001
       O  6.6319377479255488E+000  1.3036089258413877E+000  2.6287312158768987E+000
       H  7.5974705102757794E+000  1.7013345372027637E+000  2.8699850436828145E+000
       H  6.2228541975551446E+000  1.7037687149768108E+000  3.4764765271556954E+000
       O  4.0507857353129788E+000  2.6534698363661833E+000  4.0814659755570117E+000
       H  4.9871302580862302E+000  2.2303369686591319E+000  4.1402424616921758E+000
       H  4.4252870144045398E+000  3.5710213982615038E+000  4.2930691090959652E+000
       O  6.9408885902522117E+000  1.2068716364989738E+000  6.5037824854310955E+000
       H  7.5905788711879199E+000  1.7728682597175254E+000  6.9497378529068454E+000
       H  6.2086523306564283E+000  1.8321276383788891E+000  6.7898944814327304E+000
       O  4.6431077640960643E+000  2.7348768499156888E+000  8.2479864760495261E+000
       H  5.2940279024185202E+000  2.1131703383522016E+000  8.7867645168143955E+000
       H  5.0003758186944012E+000  3.5477523320710715E+000  8.7635096978185345E+000
       O  6.6113344351975423E+000  1.5086750889259610E+000  1.0221901050158014E+001
       H  7.5260486763047991E+000  1.8806279825687127E+000  1.0284263393213340E+001
       H  6.2697544184145872E+000  2.1705132381186845E+000  1.0982448199619196E+001
       O  4.9204662281129821E+000  2.5847830619786105E+000  1.2462759012937914E+001
       H  5.1578709467156179E+000  2.0317668248939111E+000  1.3384526291447209E+001
       H  4.8699867557537999E+000  3.4706561551153254E+000  1.2950444544238376E+001
       O  7.3584836526799178E+000  6.6662523678378927E-001  1.3673267775322074E+001
       H  8.1509091061522874E+000  1.3273141227839289E+000  1.3880531386474368E+001
       H  6.7134693678831443E+000  1.4101018999434038E+000  1.3670116911730045E+001
       O  2.4811046680916560E+000  6.4991998080659474E+000  7.1453214642527507E-001
       H  2.8606058403378136E+000  6.5344057900133041E+000 -1.8977961622655865E-001
       H  2.6082498835929417E+000  7.4294662732149241E+000  8.4708744712744710E-001
       O  4.4058269177263911E+000  5.0165046731491856E+000  1.9531467725877225E+000
       H  4.7260951952964199E+000  5.7896402508786977E+000  1.4123855335951887E+000
       H  3.4714199397320811E+000  5.2890056791152578E+000  1.7955983874150294E+000
       O  2.1124921403342474E+000  6.3412615640389287E+000  3.9026339097745115E+000
       H  2.6562108418207457E+000  6.0447804620165844E+000  3.1612334406274889E+000
       H  2.0440643625034305E+000  7.2307676062924928E+000  3.5254871612393801E+000
       O  4.3321980283214305E+000  5.1482652664572113E+000  5.9220946237052150E+000
       H  3.4293762920138331E+000  5.3579284983619528E+000  5.6857430184157476E+000
       H  4.0387387893753663E+000  4.3446300437666077E+000  6.3652370629054928E+000
       O  2.0943210906519076E+000  6.5472032258596737E+000  8.2405344866961929E+000
       H  2.2014860029108809E+000  6.9310318822206378E+000  9.2601055734684348E+000
       H  2.1627651095630758E+000  7.5508296140842148E+000  7.7798882580605326E+000
       O  4.3461713738515471E+000  5.0196086882002531E+000  9.7742643175024444E+000
       H  5.1869234184081163E+000  5.6383825943210137E+000  9.8457707988153373E+000
       H  3.9072855152409218E+000  5.5674751436249199E+000  9.0225641065875735E+000
       O  2.1984861443782537E+000  6.7518004348345322E+000  1.1230330763424778E+001
       H  3.1262096346849488E+000  6.5195996131825806E+000  1.1574280105849697E+001
       H  2.3165065129118756E+000  7.7557211818438452E+000  1.1530910951726081E+001
       O  4.4298933990938512E+000  5.5841434824403340E+000  1.2929956571946727E+001
       H  5.2342800075295646E+000  6.1976700661639370E+000  1.3019066315823222E+001
       H  4.7956372806562362E+000  5.1136904998734032E+000  1.2067584866005559E+001
     &END COORD
     &VELOCITY
         4.3863641019652652E-005  2.3123596855935554E-004 -5.8087132470863734E-005
         6.6112062960161798E-004 -5.8484639611205459E-004 -1.5894280926949686E-005
        -3.5252697067352412E-004  7.0294032298013142E-005  2.6567746584839368E-004
         1.7158536513714776E-004  4.4101992556385752E-005 -1.3323023291534169E-004
        -1.9125084468718683E-004 -1.1175652843350328E-003 -1.0710485020867496E-004
        -1.3228713017685357E-004  2.0543851172197998E-005  5.1422633928742390E-004
         6.3446386113065893E-005 -2.3236573516700104E-004  7.9709421882993728E-005
        -1.0806960930538074E-004 -1.3558893332776204E-004 -8.8070651676736448E-005
        -3.5896679019251456E-004  1.4447565490440404E-003 -9.8533476448520001E-004
         2.3785285178488229E-005 -2.0909483482773898E-004 -1.4320861231741403E-004
         5.4741496458585019E-004  8.5095945171513284E-004  2.8221950963474234E-004
        -1.2400888192238915E-003  7.0240594245769622E-004  4.0168930411871569E-005
         7.0192419336582854E-005 -3.3714426338495814E-005  1.4065495153158362E-005
        -3.2549635038127453E-005 -4.3785933331262113E-004  1.8420759869206067E-004
        -7.2397051871638603E-004  1.0480478561008890E-003  2.3238218962613435E-004
        -1.0990937971894041E-004 -1.2899289499929974E-004  1.3871803513145673E-005
         2.7640489403472820E-004  5.8339533392705941E-004 -5.2125662706024682E-004
        -4.4523062003216940E-005  3.2115630094746683E-004  3.3608329265395291E-005
        -3.3584366511314898E-005  1.1556792498339304E-005  1.0609485221719154E-004
         4.0553149496525534E-005  3.8899436302162931E-006 -5.9614612096700361E-005
         1.4746046208568155E-005  9.9308034843205461E-005  1.8413535226612557E-004
        -2.9612795686134846E-005 -8.1590213599761288E-005 -1.0760925496759809E-004
        -4.9048748192677904E-004 -2.0964839575534413E-004 -4.8591730481357856E-004
         2.0170009844161773E-004 -4.2415494562246970E-004  2.1634995026548052E-004
        -3.1790085037445753E-005  1.4474414858206086E-004 -6.3114174897372266E-005
         6.7732796781232255E-005 -3.1892395752819615E-004  2.4379895861469908E-004
        -1.6486287528577574E-004 -3.1155748043267396E-004 -3.0146520232254972E-004
        -6.9070831234783724E-005  3.5929752826680600E-006  3.2850927776339708E-005
        -5.1314085573273861E-004  7.6683318132841076E-006  3.4638057506988567E-005
         1.1723058826342439E-003 -1.2127202753440217E-004 -4.0722593676119134E-004
        -6.7518473580517886E-005  9.3123897878719680E-005 -1.1992598900852913E-004
        -5.6556109013089143E-005 -4.5764638051392980E-004  5.7494665029986648E-004
         3.8297524784062961E-004  4.9252350858158582E-005 -2.0136824397339956E-004
         3.4025805549285741E-006  1.3487602576705012E-004 -2.4159339468984963E-005
         1.1577296262741875E-004 -7.7943778350160768E-004  6.2175931649635565E-004
        -6.8422002763897309E-005 -4.2850228644145360E-004 -1.8662563756077858E-004
        -2.0415558995057342E-004 -1.5659325571439617E-005 -6.3709164321031929E-005
         8.2225748308434289E-004 -5.6592005452748431E-005 -1.7244151933364103E-005
         4.9223308314551360E-004  8.3606399346789861E-005  6.7978638634130773E-005
         1.2099416200783350E-005  5.5961800438645353E-005  2.5740633389130367E-005
        -5.6023680335243599E-004 -2.4609937078971984E-004  4.4781386358842774E-004
         2.3317416770886673E-004 -5.8739709703795977E-005 -1.0314310248376788E-004
        -7.8495445189511706E-005  9.4348872958788981E-005 -3.1434553067599664E-005
         2.9156880711211702E-004  6.6484992781506600E-004  1.4656192795644239E-004
        -1.1892051250344788E-004 -4.0294662971040632E-004  1.0403869116600339E-005
         1.2959269634132958E-004  2.1107036954257633E-005  4.9512652815836246E-007
         6.0718231893470528E-005 -4.8343449678800850E-004  4.0388446581285029E-004
        -6.9922354084917763E-004  3.5305818690408545E-005 -1.3235212055998669E-004
         1.4787482107382963E-004  5.0190332047761905E-005  1.7629595420826306E-004
        -5.3074360648898932E-004  2.0438001306229961E-004 -5.1262020992996044E-004
        -2.2293558887406350E-004 -8.6774306620375567E-005 -3.7691486226478470E-004
         2.8719742310739675E-005 -1.6437330870634329E-005  9.6046460167030398E-005
        -1.2585716450038236E-004  7.0609459203079927E-005  1.1075842935920399E-004
        -6.8501144796498658E-005 -2.9263075219690442E-004 -6.2992918728695135E-004
         2.3241116525896256E-005  2.9669818684330810E-004  6.2697165447346930E-005
         6.2459091087117401E-004 -2.8089311393624184E-004  1.5633429324109793E-005
        -6.6951283622063758E-004 -1.5045075426349190E-003 -1.6563977164052541E-004
        -1.7026141054935832E-004  7.3625716257142058E-005 -5.5604099472322413E-005
         3.7286655289599691E-004  1.6928134705029681E-004  2.3749652314686279E-004
         4.6361186671324572E-004 -4.8531805203231980E-004 -2.6697445873088754E-004
         7.8081390519263587E-005  5.6055379615756437E-005  2.0088548528811787E-005
         4.8942236397014546E-004  3.1217030937079859E-005  6.8374129679818377E-005
        -1.9815255537701228E-004 -8.5622817157540775E-004 -4.2951556124519496E-004
        -2.3975658182131975E-005  3.2610220150185213E-005  1.0217831155237421E-004
        -8.2547815967402377E-005 -8.7060999785777587E-005  2.2825859335990145E-004
         3.4862196336231364E-005 -6.8178081582955327E-005 -4.9754272434309181E-004
        -1.0888033468964326E-005  1.1380561144986010E-004  2.0137682774030129E-004
         3.2599171314530932E-005 -2.7633040644038095E-004 -2.5212240963571876E-004
         8.4092681836637979E-005 -4.8377502490569918E-004 -3.4238441952576362E-004
        -5.0536011893391049E-005  3.9798257104705914E-005  9.6988187496444112E-005
        -6.3482346994450905E-004 -5.2054398437307247E-004  5.8100102186659067E-005
         4.8676007782688348E-004 -5.4362286072345161E-004  1.3761725908883525E-004
        -4.0255245197356207E-005  1.0964533235077643E-004 -4.0544244503644074E-005
         1.2184024352267395E-004 -4.1881798640511588E-004 -3.9351777083749254E-004
        -4.3975077211427468E-004 -5.7962462264442023E-004  3.6005074760054099E-004
         1.7368963204625353E-005  1.4677395318387840E-004 -3.5146579416531172E-005
        -3.9997443952343993E-004 -1.3335608094297289E-003  8.2115292461747526E-004
         6.4240050578354775E-004  8.5516355944502157E-005  5.5239526303949638E-005
         6.9520036460674417E-005 -1.6965519791186816E-004 -1.4986649688994230E-004
        -1.5463436505770356E-004 -2.9793076822662843E-004  1.9665121830442206E-004
        -1.8570154661275029E-004  5.5390550889400456E-004  2.2902870782084050E-004
         1.3536878817293308E-004 -9.5274396072036696E-005  1.0771959881159594E-005
        -1.3908881094997652E-004  8.0215890215130589E-004 -3.5813837285643277E-004
         4.9127142783988997E-004 -2.0133111336857607E-004  1.3402674751104279E-004
        -3.9012528770826724E-005  3.0798486645148880E-005  1.3341559201276534E-004
        -2.1810902394579098E-004 -5.9740440012229954E-005 -5.5469025441248516E-004
        -3.1488210638382456E-005  6.3511984901670849E-005  2.0861472157719605E-005
         7.6841128346265871E-005  2.2380556554141271E-004 -4.4863229390237559E-005
        -5.8345849042866157E-004 -5.9821229334298801E-004  1.7226192908829547E-004
         3.9228443441655872E-006 -3.8009144878400257E-004  2.1013262579004462E-004
         1.5146787683878544E-004  6.4864647053073564E-005  1.9227409074583222E-004
        -6.6809654455074127E-004  1.7461118132554480E-004 -2.5102744936148945E-004
        -2.0800605860072785E-005 -7.7675144366588268E-004  1.4518188840930427E-004
         2.0839317448491642E-004  1.3428182044701624E-004 -1.2000001287889683E-004
        -1.5848103235616639E-003 -1.0924953155158977E-003 -3.5461908942716243E-004
        -3.5216240869815778E-004 -7.0975567117698347E-005 -9.3175667133350883E-005
     &END VELOCITY
     &KIND "H"
       ELEMENT "H"
       MASS  2.0141019999999998E+000
     &END KIND
     &TOPOLOGY
       COORD_FILE_NAME ice_d20relaxed.xyz
       COORD_FILE_FORMAT XYZ
       NUMBER_OF_ATOMS 96
       MULTIPLE_UNIT_CELL 1 1 1
     &END TOPOLOGY
   &END SUBSYS
 &END FORCE_EVAL
