 # Version information for this restart file 
 # current date 2026-02-28 22:08:34.620
 # current working dir /Users/mackenziehenley/cp2k/D2O_ice/CP2K
 # Program compiled at                                       2025-01-01 12:26:53
 # Program compiled on                                                          
 # Program compiled for                                                    arm64
 # Source code revision number                                                  
 &GLOBAL
   PRINT_LEVEL LOW
   PROJECT_NAME "Titan_Ice_D2O_Quantum"
   RUN_TYPE MD
 &END GLOBAL
 &MOTION
   &MD
     ENSEMBLE NVE
     STEPS 1000
     TIMESTEP  9.9999999999999989E-001
     STEP_START_VAL 1000
     TIME_START_VAL  9.9999999999999272E+002
     ECONS_START_VAL -3.7213938853219747E+002
     TEMPERATURE  9.4000000000000000E+001
     &AVERAGES T
       &RESTART_AVERAGES
         ITIMES_START 1
         AVECPU  7.0312091520000237E+000
         AVEHUGONIOT  0.0000000000000000E+000
         AVETEMP_BARO  0.0000000000000000E+000
         AVEPOT -3.7290902512706884E+002
         AVEKIN  7.0321009181915828E-001
         AVETEMP  1.5582871519016976E+003
         AVEKIN_QM  0.0000000000000000E+000
         AVETEMP_QM  0.0000000000000000E+000
         AVEVOL  7.0202309426947795E+003
         AVECELL_A  1.7075565336754675E+001
         AVECELL_B  1.7075565336754675E+001
         AVECELL_C  2.7801650867013464E+001
         AVEALPHA  9.0000000000000000E+001
         AVEBETA  9.0000000000000000E+001
         AVEGAMMA  1.1999999999999999E+002
         AVE_ECONS -2.1836831143259113E+002
         AVE_PRESS  0.0000000000000000E+000
         AVE_PXX  0.0000000000000000E+000
       &END RESTART_AVERAGES
     &END AVERAGES
   &END MD
   &PRINT
     &TRAJECTORY SILENT
       &EACH
         MD 1
       &END EACH
     &END TRAJECTORY
     &VELOCITIES SILENT
       &EACH
         MD 1
       &END EACH
     &END VELOCITIES
   &END PRINT
 &END MOTION
 &FORCE_EVAL
   METHOD QS
   &DFT
     &SCF
       MAX_SCF 40
       EPS_SCF  1.0000000000000001E-005
       IGNORE_CONVERGENCE_FAILURE T
       &OT T
         MINIMIZER DIIS
         PRECONDITIONER FULL_SINGLE_INVERSE
       &END OT
     &END SCF
     &QS
       EPS_DEFAULT  1.0000000000000000E-010
       METHOD PM6
     &END QS
   &END DFT
   &SUBSYS
     &CELL
       A  9.0359999999999996E+000  0.0000000000000000E+000  0.0000000000000000E+000
       B -4.5179999999999980E+000  7.8254055485961880E+000  0.0000000000000000E+000
       C  0.0000000000000000E+000  0.0000000000000000E+000  1.4712000000000000E+001
       PERIODIC XYZ
       MULTIPLE_UNIT_CELL 1 1 1
     &END CELL
     &COORD
       O  2.2588984221887149E+000  2.5035986850387340E+000  1.5306561427234864E+000
       H  1.7270403195680502E+000  1.7012666492957003E+000  1.6509680539933418E+000
       H  2.4003444360506592E+000  2.7497969994636113E+000  2.6077286945504476E+000
       O  1.5688725506967993E+000 -1.0921947968924803E+000  4.0092367682545600E+000
       H  5.2153032385151188E-001 -1.4199951269018978E+000  4.4888981318176508E+000
       H  1.9874151111619134E+000 -1.8962909361268485E+000  4.1663293261748242E+000
       O  7.6461160562892694E-001  3.3481540518352575E+000  3.6097130576360801E+000
       H  3.0733128640881080E-001  3.2047893168739821E+000  2.6059862458203469E+000
       H  1.1003520839878769E+000  4.2080049590611939E+000  3.3053066026317612E+000
       O  2.9795130046344651E+000  7.8065359811301449E-001  6.3180747670713790E+000
       H  2.4089251563229408E+000  2.3494517449165087E-001  5.7013163416161134E+000
       H  3.6105371475791719E+000  8.2361247702028545E-002  5.8885502302292609E+000
       O -3.9139944209261777E-002  4.0355002441710424E+000  1.0040073471955587E+001
       H -5.7198989277880397E-001  3.2747978931834711E+000  9.6293816531049004E+000
       H  8.2166564120609453E-001  3.6340821705367712E+000  1.0519073252092378E+001
       O  2.4660781040370194E+000  1.6360294177692427E+000  9.7192326472078658E+000
       H  1.8820989271659800E+000  2.5862500088552141E+000  1.0064501664069811E+001
       H  3.0155287895415861E+000  1.9306118174438731E+000  1.0766154747779263E+001
       O  2.7607904643494234E+000  4.3973555978886676E+000  1.0801023128391346E+001
       H  3.0368414685075122E+000  4.4129677470746946E+000  1.0162237104411576E+001
       H  2.4906618234280682E+000  4.8926298956774490E+000  1.1371013285667605E+001
       O  3.7041011876024457E+000  2.5027402281585611E+000  1.3501724885493164E+001
       H  3.8875405491969919E+000  3.2877867570344828E+000  1.3626934558119899E+001
       H  3.0359583835127482E+000  2.3073730146622489E+000  1.4025225096358028E+001
       O -2.5887066059642931E+000  7.4398792728611749E+000  7.3310502319103174E-002
       H -1.5962463778471763E+000  6.9246515967850550E+000 -3.0153707700912302E-001
       H -2.2031324767546803E+000  8.1986160695448085E+000 -5.1763492638080766E-001
       O -2.0989316734355499E+000  4.4553768569850769E+000  1.0613207669443603E+000
       H -1.0106946029080439E+000  4.5299661093552350E+000  9.3530310997843424E-001
       H -1.6257153019048665E+000  3.7393802182421472E+000  1.6403586234010155E+000
       O -2.2274024651542423E+000  3.2168056434437302E+000  6.6591475403489584E+000
       H -2.4002072792193925E+000  2.7235207505990671E+000  7.2628275026034386E+000
       H -3.1510174745209780E+000  2.8471329613915861E+000  6.3380949159157787E+000
       O  2.0182501018254952E+000  4.9928054855745403E+000  6.0988908734288207E+000
       H  2.5482611479103161E+000  4.4300383111886683E+000  5.7656012030613413E+000
       H  1.6873934653798224E+000  5.0334224641087859E+000  6.8408225004015897E+000
       O -5.1347478376567306E+000  7.8435342576598348E+000  7.7016954512651603E+000
       H -4.2238233093427757E+000  8.1598789850408604E+000  7.7168838357277396E+000
       H -5.0352371365325332E+000  7.9969744507029681E+000  6.5404632820560025E+000
       O -9.5774058461452816E-001  6.7326671777865901E+000  7.9543177129835758E+000
       H -1.0116933711914571E+000  6.1298449617523687E+000  7.0534881872086030E+000
       H -2.1790802419836934E+000  6.9722850450686940E+000  8.1049502595758387E+000
       O -3.5532077451798925E+000  6.1999907207225977E+000  9.6338790610157812E+000
       H -4.1269467185521105E+000  5.7793388498508165E+000  9.1786498718395126E+000
       H -3.9138526782949912E+000  6.9654083513579996E+000  1.0221230142044520E+001
       O -3.6872676264039300E-001  5.8185225924556470E+000  1.2588194671354493E+001
       H  1.4187063685071410E-001  5.2154561584608530E+000  1.2154098424434537E+001
       H -1.3493557285240678E+000  5.6148824036791840E+000  1.2669859401282491E+001
       O  4.0536556559251284E+000  4.4714692674359779E-001  2.0209718196850526E+000
       H  4.5728342986061543E+000  1.0470098681855864E+000  1.6298864248997014E+000
       H  3.6491235709066339E+000  1.4475045789929804E+000  2.5430919246502559E+000
       O  8.0574860270496096E+000  6.7708981641708077E-001  1.3597329594840462E+000
       H  8.4345348008966745E+000  7.0675036959382476E-001  2.2547675268463738E+000
       H  7.9544364761494792E+000  1.7363695690055359E+000  1.4763193802172765E+000
       O  5.1812962130871654E+000  2.2141210093965813E+000  3.3187647080602720E+000
       H  5.0209867070160756E+000  3.3848639831001788E+000  3.4831281497842790E+000
       H  6.1301149068145353E+000  1.8210008696333793E+000  3.5984842593856481E+000
       O  7.8528569107485620E+000  1.1775026441977519E+000  4.7041450948210812E+000
       H  7.3806819032069271E+000  1.5133504621707807E+000  3.7803313063487627E+000
       H  8.2184547509581112E+000  2.3940656081423057E+000  4.5028265744868943E+000
       O  5.6612961244180573E+000  2.0062126291844011E+000  9.7078558009505205E+000
       H  5.1426458500664856E+000  2.3750375150858924E+000  8.8179265953108708E+000
       H  6.1462656665517086E+000  2.8292550652805084E+000  9.6963308262000112E+000
       O  8.5673098757276467E+000  9.4805321895251171E-001  1.0965832085926410E+001
       H  7.7286901076123486E+000  8.6604770039193590E-001  1.0624037062049036E+001
       H  9.3161725026097493E+000  8.6465176354117179E-001  1.0177510055113720E+001
       O  6.7299996437691760E+000  4.2763239967845088E+000  1.1360114290620661E+001
       H  6.4299867566221725E+000  4.6891731436758457E+000  1.0572917392223344E+001
       H  7.8007525314231518E+000  4.0584977054343758E+000  1.1402465921430114E+001
       O  6.3487142988390701E+000  1.6174949502280134E+000  1.4394061116498657E+001
       H  5.6440711851615717E+000  1.7974805167862322E+000  1.4179214979765138E+001
       H  7.0987490293056332E+000  1.3879087049125496E+000  1.4193851415970069E+001
       O  1.3544923396065311E+000  6.6283446278212805E+000  4.2754843616414495E-001
       H  8.3517065530797618E-001  7.5165905727089442E+000  2.4281868330881456E-001
       H  2.1184651844553541E+000  7.2290667686686447E+000  8.4886333996577579E-001
       O  4.8945178331041275E+000  5.6090582123324175E+000  1.7462693585711988E+000
       H  5.3115209020604519E+000  6.3784699941893139E+000  1.4482576803689695E+000
       H  4.5428384413098888E+000  5.6713953196872939E+000  6.2309679333286350E-001
       O -5.0991854370349721E-001  6.2074244532447809E+000  4.4415467301701801E+000
       H  3.9335253757371758E-001  5.6459287636967659E+000  4.1664996456787158E+000
       H -1.4907454106879667E-001  6.6668257084524694E+000  3.7287222636484199E+000
       O  2.3033771835598023E+000  5.8735907472570217E+000  3.8742505877403710E+000
       H  2.9722611829567680E+000  6.3888043376485264E+000  4.4730648496124230E+000
       H  2.9418439795185076E+000  5.9482108014085506E+000  3.3005672723777466E+000
       O  1.6471989385527128E+000  6.3840116192905834E+000  8.2201896755636987E+000
       H  1.7360406663080017E+000  7.2402066161057084E+000  8.1213774486232460E+000
       H  1.3065677218069141E+000  6.2936448730910843E+000  9.0799083918880132E+000
       O  3.9685507535476430E+000  3.8803374029089013E+000  7.8998199783657341E+000
       H  3.4069502529020053E+000  4.5471368320957524E+000  8.2141884307035724E+000
       H  4.9665169308934995E+000  4.5739780508336025E+000  8.1421350365709522E+000
       O  1.1176198892710427E+000  7.6135996126475218E+000  1.1753476279741543E+001
       H  1.6461724742018458E+000  8.4875101093118595E+000  1.2113243268938554E+001
       H  7.1486548897997354E-002  7.3395767616051453E+000  1.1805003181621657E+001
       O  4.2316784254809638E+000  6.0549728180244298E+000  1.3609095251909066E+001
       H  4.9484674398529780E+000  5.5636940296673503E+000  1.2805068697374898E+001
       H  4.9862727018446069E+000  6.8489044729728121E+000  1.3757613689550769E+001
     &END COORD
     &VELOCITY
        -1.5573504658750764E-004 -5.4353310840056653E-004  2.8062815067605458E-004
         8.6875671601923516E-004  2.0364371881644383E-003 -1.8628107225710075E-003
         6.5603049046771879E-004  1.2039969920827395E-003 -1.5187718355930651E-003
        -5.4485784156005660E-004 -3.4694422197556474E-004  2.7079639324993675E-004
         6.4977964505838568E-004  1.3414233311860758E-003 -1.2231770797621246E-003
         8.6732125488255918E-004  5.9347076811176410E-004  4.6532746233614474E-005
        -1.6761891772727443E-004  9.4493544268848758E-005 -1.1100380828485850E-004
         1.8530521833545802E-003  2.8988917013495533E-003  1.7620052667596765E-003
        -2.1422440952215604E-003 -2.7978001123655023E-003  4.1342592964269066E-004
        -1.5997911338895424E-005 -5.0189594465405065E-004  1.3576927296976132E-004
        -2.1220261969222970E-003 -1.5831150781823750E-004 -7.7424863773427441E-005
        -9.1422044618067171E-004  1.8022162058592584E-003  2.2020750784826596E-003
         2.5282566128178573E-005 -2.2231722502475548E-004 -8.8139134914604415E-007
         2.4155294575310779E-004  1.1293809416375133E-003  2.9836059247141677E-004
         6.0653628185341492E-004  1.0006238250296676E-003  7.7062207415415178E-004
         4.6911806009868479E-004  3.4093186537323206E-005 -8.8226314475210025E-005
        -9.7092804135043742E-004  3.0974290390908517E-003  2.0803575127186203E-003
        -7.7331820348881201E-004 -5.6103517670722533E-004 -1.0691319787889295E-003
         1.9519079045930140E-004  2.9101029451811434E-004 -1.7994368060130899E-004
        -3.4073312318862040E-004  1.7252586498852846E-004 -1.3213823806899032E-004
         1.7112320215550099E-004 -5.0599600038889235E-004  7.8719406403331583E-004
        -1.7728097531789872E-005 -1.8098778167688112E-004  1.4113467376387780E-005
        -6.3501001843415924E-004  2.4193349670487102E-003  4.2578295691402500E-004
         5.9478981679405023E-004  1.1191862769556688E-003 -9.6681487813565217E-004
        -2.1168184096804956E-004  2.7897183352620990E-004 -2.4591835521127405E-004
         3.2677605697004120E-003 -2.6961050638995756E-003 -7.3183995013433533E-004
        -2.1610593786008324E-003  6.4854412019978906E-004  3.3958067676846361E-004
        -3.3532516890466985E-004 -2.5997163180846021E-005 -1.2296197900387768E-004
        -1.6557954025269433E-003 -1.3339341451482050E-003  2.4448215830575888E-004
         6.4188474682735496E-004  1.2497022238558142E-003 -7.1407317276410876E-004
         4.6626254880505186E-004  1.9032636131675757E-004  2.4947897014160716E-004
        -7.5124052654594814E-004 -8.9687002946711876E-004 -6.5736216439263827E-004
        -2.4431771553994727E-003 -1.0343671431355607E-003  1.2434111795307378E-004
        -3.2785461531543884E-005  4.6354572797263123E-005  7.1378497456553292E-005
        -1.1109226308973937E-003  4.8683229047498877E-004 -4.0155858626983898E-004
         4.6522104770949145E-004 -4.0114201766018923E-004 -1.0757201753084943E-003
        -1.5889416758125145E-004  8.7149102183244181E-005 -2.5883671374627999E-004
        -2.0380334165585840E-004 -5.7814267314176663E-004  7.8302222938898651E-004
        -7.8309240287148107E-004 -6.1207532112775894E-004  1.7739462642690398E-003
        -6.6638351946841229E-004 -1.0933359666597123E-004 -3.6184745990232731E-004
         2.1012362568473002E-003 -5.2179179778845343E-004 -7.3598047343840362E-004
         1.8867874678712038E-003  1.2048144570574897E-003  1.8500292213640436E-003
        -4.5289913250402852E-005 -3.0619988753928089E-004 -2.1366416200290383E-005
         6.2614959277108406E-004  1.8915145666798029E-003  7.7060725799729972E-004
         2.0730311446984155E-003 -1.7480677092669326E-003 -2.0311241635765538E-003
        -1.2888966327809589E-004  1.6909616080046890E-004 -2.5676047080626987E-004
         5.1089960305153892E-004 -1.5569749066062268E-003 -1.1328894930208847E-003
        -3.6145847609758230E-004  1.8698384086464616E-004 -6.7237333210810662E-004
         1.5953303216652341E-004 -3.4604398825198435E-004 -3.8990209785383825E-005
         3.7926834962946794E-004 -1.6713338933999807E-004 -8.3758941972443481E-005
         1.6860327125954651E-004  1.4925501191455797E-003 -2.6776190123260779E-004
         3.2670578041195142E-004 -4.8320237183245243E-004 -1.6709163557789483E-004
         7.2892811229323157E-005  1.7251766691263324E-003 -1.0578572003692071E-003
         5.0909401931208066E-004  1.6879914047286855E-003  1.1371082219924303E-003
        -2.5974971332422877E-004  2.0001476120095772E-004 -8.5791326653852356E-005
        -2.0341218364783650E-004 -8.0968475077980310E-004 -1.0381516934781338E-004
         2.2225015000157016E-003 -9.3042793147851048E-004  1.0443823931279502E-004
         2.2132158576462587E-004  8.3364650919461936E-006  2.0276145338199151E-005
        -7.3893550787496195E-004 -5.9639403600319867E-004 -1.1202527987570405E-003
         1.1303079980251281E-003  4.4318840634756591E-004  1.0952439942528251E-003
         1.3384256685833388E-004  4.2862054298678401E-004  2.3192819754519920E-004
        -1.3223028781520862E-003 -9.7664221604099087E-004  8.0926291035341921E-005
         2.2054131548675219E-004 -1.6064286800419861E-003  1.0582923196415170E-003
         5.5235825464964314E-004  1.1013881631543352E-004  5.9024067364913649E-004
        -2.6317530746060966E-003 -6.8101808733458599E-004 -2.4975552696609692E-003
        -4.3344671404620637E-004 -1.6193612809521567E-004 -1.3009224303632244E-003
         9.2416326747551410E-005  6.7437654962394024E-005 -1.1631255378655788E-004
        -1.3650552568318681E-003  2.1100821431282353E-004  8.8455198602415796E-006
        -5.0662460538258641E-004 -8.1179635359663845E-004  1.0851166486490229E-003
         3.4093518982685671E-004  4.2019097678308538E-004 -4.0833106773279536E-005
         1.1399422720719862E-003 -4.7574590385657560E-005  1.9767590824706246E-005
        -2.3967566579124805E-003  8.4100111460171719E-004  1.4513909430969148E-004
         1.0694525849736350E-004  8.1002175098952449E-005  1.1910466035766177E-004
        -1.3116064690783316E-003 -1.2755092031672857E-003  5.0192894776158233E-005
        -5.0505666477350484E-004 -2.2622042387500274E-003 -1.0852059572902652E-003
        -1.4697685428289177E-004 -9.8783729960545683E-005  3.1688982778078727E-004
         1.1994465100764163E-003  1.6500470896545587E-003 -1.5950701519309328E-003
        -6.8508684496435283E-004  9.9025614054827019E-004 -2.5132749331314825E-003
        -1.8295037544927630E-005 -1.2105635276005980E-004  1.5117446076117050E-004
         1.4195060576916555E-004 -4.9015845983010713E-004  3.6794059799452513E-004
        -2.1403093843295502E-004 -9.9844779538191459E-004  1.1492036282391733E-003
         3.0261746821374911E-004  1.1790590857722385E-004 -4.2264972529049339E-004
         1.5307912313797750E-003  7.5836366755204507E-004  1.0933740864457128E-003
        -1.2212425587034453E-003 -6.7869598926586919E-004  1.0970489099992953E-003
        -3.0239151465036117E-004  3.0969709255022855E-004  3.2083119600042703E-004
         1.1210296764113728E-003 -1.4678512099496223E-004 -1.0209280548978666E-003
         8.7158791417405314E-004 -2.0252639242980220E-003 -2.1951922421164285E-004
         2.8261771769413685E-004  4.2986348294679242E-005  1.6214987500812446E-004
        -1.8539783804326902E-003  1.3809577520166462E-003 -1.6799004793219347E-004
         2.0572690491153355E-003 -1.5808690388616697E-004  4.0510793483562388E-004
        -1.7887308381424272E-005 -1.6268315955931560E-004  1.4541180581033458E-004
        -1.0712359545345369E-003 -9.4086406968152381E-004  3.5987954623834613E-004
        -9.3924224957963481E-004 -1.8760217214852800E-004  1.8556197195084641E-004
         1.4720498482663407E-004 -2.5180150476398153E-005 -8.1329281999375816E-006
        -1.7855607510698543E-004  4.5909592480822449E-004 -3.5148081633230247E-004
        -6.3314658480596419E-004 -8.2496336222041605E-004 -1.1683802432551425E-004
     &END VELOCITY
     &KIND "H"
       ELEMENT "H"
       MASS  2.0141019999999998E+000
     &END KIND
     &TOPOLOGY
       COORD_FILE_NAME ice_d20relaxed.xyz
       COORD_FILE_FORMAT XYZ
       NUMBER_OF_ATOMS 96
       MULTIPLE_UNIT_CELL 1 1 1
     &END TOPOLOGY
   &END SUBSYS
 &END FORCE_EVAL
